Sodilite                                
   1.00000000000000     
     8.9801441880013684   -0.0155938760167934    0.0155938746141453
    -0.0155938746141453    8.9801441880013684   -0.0155938760167934
     0.0155938760167934   -0.0155938746141453    8.9801441880013684
   O    Na   Al   Si   Cl   K 
    24     7     6     6     2     1
Direct
  0.1387940721329985  0.4404237638054953  0.1489903522140268
  0.8582802011857387  0.5625489115619520  0.1475186212524945
  0.8611160070434998  0.4366467930234085  0.8499547931774348
  0.1386358365383480  0.5637086030149427  0.8479893297643258
  0.1475186212524945  0.1417197988142612  0.4374510884380479
  0.1489903522140268  0.8612059278670017  0.5595762361945049
  0.8479893297643258  0.8613641634616523  0.4362913969850571
  0.8499547931774348  0.1388839929565003  0.5633532069765915
  0.4362913969850571  0.1520106702356742  0.1386358365383480
  0.5633532069765915  0.1500452068225655  0.8611160070434998
  0.4374510884380479  0.8524813787475054  0.8582802011857387
  0.5595762361945049  0.8510096477859731  0.1387940721329985
  0.9355840637983966  0.6452612731567838  0.6534407009846153
  0.0606003481600194  0.3668936588612839  0.6430239249631595
  0.9349593461412763  0.3556242349615129  0.3438012954289780
  0.0527215840895023  0.6357050150963705  0.3540165618896533
  0.6443757650384869  0.6561987045710217  0.9349593461412763
  0.3642949849036297  0.6459834381103462  0.0527215840895023
  0.3547387268432169  0.3465592990153845  0.9355840637983966
  0.6331063411387163  0.3569760750368401  0.0606003481600194
  0.6430239249631595  0.9393996518399801  0.6331063411387163
  0.6534407009846153  0.0644159362016035  0.3547387268432169
  0.3540165618896533  0.9472784159104977  0.3642949849036297
  0.3438012954289780  0.0650406538587237  0.6443757650384869
  0.1763806130614914  0.1792499840139578  0.1775351703466282
  0.8207500159860420  0.8224648296533716  0.1763806130614914
  0.8192369790880871  0.1807630209119128  0.8192369790880871
  0.1775351703466282  0.8236193869385088  0.8207500159860420
  0.6829112359032494  0.6852163294080387  0.6823588823896674
  0.3147836705919618  0.3176411176103324  0.6829112359032493
  0.6823588823896674  0.3170887640967510  0.3147836705919618
  0.2480432668351420  0.4996975201201329 -0.0034731426144073
  0.7484647102617495  0.5025798954798637 -0.0033192406952202
 -0.0033192406952202  0.2515352897382503  0.4974201045201361
 -0.0034731426144073  0.7519567331648582  0.5003024798798670
  0.5003024798798670  0.0034731426144073  0.2480432668351420
  0.4974201045201361  0.0033192406952202  0.7484647102617495
  0.2481194171562066  0.0039084022834486  0.5009352344385097
  0.7483414558613174  0.0019559387359897  0.4970907783777602
  0.4970907783777602  0.2516585441386826 -0.0019559387359897
  0.5009352344385097  0.7518805828437932 -0.0039084022834486
 -0.0039084022834486  0.4990647655614903  0.2481194171562066
 -0.0019559387359897  0.5029092216222399  0.7483414558613174
 -0.0020588896551952  0.0020588896551952 -0.0020588896551952
  0.5401330698555666  0.4598669301444335  0.5401330698555666
  0.3492937441481592  0.6507062558518406  0.3492937441481592
 
  0.00000000E+00  0.00000000E+00  0.00000000E+00
  0.00000000E+00  0.00000000E+00  0.00000000E+00
  0.00000000E+00  0.00000000E+00  0.00000000E+00
  0.00000000E+00  0.00000000E+00  0.00000000E+00
  0.00000000E+00  0.00000000E+00  0.00000000E+00
  0.00000000E+00  0.00000000E+00  0.00000000E+00
  0.00000000E+00  0.00000000E+00  0.00000000E+00
  0.00000000E+00  0.00000000E+00  0.00000000E+00
  0.00000000E+00  0.00000000E+00  0.00000000E+00
  0.00000000E+00  0.00000000E+00  0.00000000E+00
  0.00000000E+00  0.00000000E+00  0.00000000E+00
  0.00000000E+00  0.00000000E+00  0.00000000E+00
  0.00000000E+00  0.00000000E+00  0.00000000E+00
  0.00000000E+00  0.00000000E+00  0.00000000E+00
  0.00000000E+00  0.00000000E+00  0.00000000E+00
  0.00000000E+00  0.00000000E+00  0.00000000E+00
  0.00000000E+00  0.00000000E+00  0.00000000E+00
  0.00000000E+00  0.00000000E+00  0.00000000E+00
  0.00000000E+00  0.00000000E+00  0.00000000E+00
  0.00000000E+00  0.00000000E+00  0.00000000E+00
  0.00000000E+00  0.00000000E+00  0.00000000E+00
  0.00000000E+00  0.00000000E+00  0.00000000E+00
  0.00000000E+00  0.00000000E+00  0.00000000E+00
  0.00000000E+00  0.00000000E+00  0.00000000E+00
  0.00000000E+00  0.00000000E+00  0.00000000E+00
  0.00000000E+00  0.00000000E+00  0.00000000E+00
  0.00000000E+00  0.00000000E+00  0.00000000E+00
  0.00000000E+00  0.00000000E+00  0.00000000E+00
  0.00000000E+00  0.00000000E+00  0.00000000E+00
  0.00000000E+00  0.00000000E+00  0.00000000E+00
  0.00000000E+00  0.00000000E+00  0.00000000E+00
  0.00000000E+00  0.00000000E+00  0.00000000E+00
  0.00000000E+00  0.00000000E+00  0.00000000E+00
  0.00000000E+00  0.00000000E+00  0.00000000E+00
  0.00000000E+00  0.00000000E+00  0.00000000E+00
  0.00000000E+00  0.00000000E+00  0.00000000E+00
  0.00000000E+00  0.00000000E+00  0.00000000E+00
  0.00000000E+00  0.00000000E+00  0.00000000E+00
  0.00000000E+00  0.00000000E+00  0.00000000E+00
  0.00000000E+00  0.00000000E+00  0.00000000E+00
  0.00000000E+00  0.00000000E+00  0.00000000E+00
  0.00000000E+00  0.00000000E+00  0.00000000E+00
  0.00000000E+00  0.00000000E+00  0.00000000E+00
  0.00000000E+00  0.00000000E+00  0.00000000E+00
  0.00000000E+00  0.00000000E+00  0.00000000E+00
  0.00000000E+00  0.00000000E+00  0.00000000E+00
