Sodilite                                
   1.00000000000000     
     9.1013358313269546   -0.0116737407977700    0.0111282501993839
    -0.0116620015398540    9.0978056035435273   -0.0445677200497802
     0.0111120915987015   -0.0445780176713247    9.0998552768462755
   O    Na   Al   Si   Cl   K 
    24     5     6     6     2     3
Direct
  0.1336721316369078  0.4500243795288466  0.1470842085871313
  0.8512898923433881  0.5574399266666709  0.1533279398528836
  0.8612976688871020  0.4546936896551985  0.8543119338980280
  0.1441491702730687  0.5546766548775750  0.8406704441559879
  0.1519021812661743  0.1487825797446132  0.4472422851151870
  0.1423352947167434  0.8631825315794720  0.5487888300116071
  0.8398637045817032  0.8554188474544479  0.4404423359572404
  0.8503159490684997  0.1358810119955069  0.5467111537113364
  0.4424144696956868  0.1565687662314446  0.1457465197090382
  0.5424557232895896  0.1490333533767130  0.8618890829874878
  0.4430271663080766  0.8462406728330376  0.8530086257627061
  0.5517316825282856  0.8537018027802218  0.1355094742287381
  0.9420471145067270  0.6566176618596569  0.6613421521298718
  0.0385107039428296  0.3716837036792432  0.6387955899399859
  0.9405715242018783  0.3472212665609481  0.3340717697923350
  0.0425234675188855  0.6288094729780455  0.3604105533026471
  0.6382515958376839  0.6527977801580439  0.9433048631112905
  0.3566265360880462  0.6525295846433836  0.0478237986796364
  0.3548789215632331  0.3518758674193136  0.9538103814686459
  0.6394425926326996  0.3489893482112333  0.0523115121532532
  0.6485848199895016  0.9481341780917311  0.6402730497507122
  0.6459675465833673  0.0549838176601083  0.3575425297767738
  0.3449276600769093  0.9520526543741821  0.3570094378685807
  0.3442331634569963  0.0477895049870947  0.6403346682928912
  0.1834304527205724  0.1849118913771246  0.1871834257237286
  0.8101741311993235  0.8107707026716312  0.1876919156488811
  0.1837142107814251  0.8144826676914309  0.8136712437441613
  0.6906839812823505  0.6949361450382989  0.6927282451891339
  0.6894757857446049  0.3059455406782637  0.3053240103378233
  0.2442860287022795  0.5035061214640363 -0.0022347334007837
  0.7454041651659830  0.5031567030965192  0.0003383347948402
 -0.0064193283035438  0.2521076940481515  0.4931724489333323
 -0.0091840742421054  0.7516256668001129  0.5002710304110577
  0.4950870254599562  0.0024514434457094  0.2479000558222717
  0.4949065224412293 -0.0005268570783435  0.7482495758360279
  0.2445352186037018  0.0027508672361393  0.4976115483364352
  0.7453855319838115 -0.0009669479681568  0.4962193812916879
  0.4945467875943445  0.2518143404615595  0.0024158913099312
  0.4964508680228747  0.7517678301266809 -0.0042523491582467
 -0.0087908651370917  0.4974317111305603  0.2484585107138425
 -0.0049112967744630  0.5085939781642027  0.7482080035196133
  0.0298890435620987 -0.0355017225691420  0.0351446561927431
  0.5760632877697283  0.5013217641892684  0.4984928066584803
  0.8413319500247420  0.1585250133760345  0.8424079589959825
  0.3370172653543465  0.3416282515800072  0.6598458030655960
  0.3359026270498464  0.6601381376931775  0.3393890957894627
 
  0.00000000E+00  0.00000000E+00  0.00000000E+00
  0.00000000E+00  0.00000000E+00  0.00000000E+00
  0.00000000E+00  0.00000000E+00  0.00000000E+00
  0.00000000E+00  0.00000000E+00  0.00000000E+00
  0.00000000E+00  0.00000000E+00  0.00000000E+00
  0.00000000E+00  0.00000000E+00  0.00000000E+00
  0.00000000E+00  0.00000000E+00  0.00000000E+00
  0.00000000E+00  0.00000000E+00  0.00000000E+00
  0.00000000E+00  0.00000000E+00  0.00000000E+00
  0.00000000E+00  0.00000000E+00  0.00000000E+00
  0.00000000E+00  0.00000000E+00  0.00000000E+00
  0.00000000E+00  0.00000000E+00  0.00000000E+00
  0.00000000E+00  0.00000000E+00  0.00000000E+00
  0.00000000E+00  0.00000000E+00  0.00000000E+00
  0.00000000E+00  0.00000000E+00  0.00000000E+00
  0.00000000E+00  0.00000000E+00  0.00000000E+00
  0.00000000E+00  0.00000000E+00  0.00000000E+00
  0.00000000E+00  0.00000000E+00  0.00000000E+00
  0.00000000E+00  0.00000000E+00  0.00000000E+00
  0.00000000E+00  0.00000000E+00  0.00000000E+00
  0.00000000E+00  0.00000000E+00  0.00000000E+00
  0.00000000E+00  0.00000000E+00  0.00000000E+00
  0.00000000E+00  0.00000000E+00  0.00000000E+00
  0.00000000E+00  0.00000000E+00  0.00000000E+00
  0.00000000E+00  0.00000000E+00  0.00000000E+00
  0.00000000E+00  0.00000000E+00  0.00000000E+00
  0.00000000E+00  0.00000000E+00  0.00000000E+00
  0.00000000E+00  0.00000000E+00  0.00000000E+00
  0.00000000E+00  0.00000000E+00  0.00000000E+00
  0.00000000E+00  0.00000000E+00  0.00000000E+00
  0.00000000E+00  0.00000000E+00  0.00000000E+00
  0.00000000E+00  0.00000000E+00  0.00000000E+00
  0.00000000E+00  0.00000000E+00  0.00000000E+00
  0.00000000E+00  0.00000000E+00  0.00000000E+00
  0.00000000E+00  0.00000000E+00  0.00000000E+00
  0.00000000E+00  0.00000000E+00  0.00000000E+00
  0.00000000E+00  0.00000000E+00  0.00000000E+00
  0.00000000E+00  0.00000000E+00  0.00000000E+00
  0.00000000E+00  0.00000000E+00  0.00000000E+00
  0.00000000E+00  0.00000000E+00  0.00000000E+00
  0.00000000E+00  0.00000000E+00  0.00000000E+00
  0.00000000E+00  0.00000000E+00  0.00000000E+00
  0.00000000E+00  0.00000000E+00  0.00000000E+00
  0.00000000E+00  0.00000000E+00  0.00000000E+00
  0.00000000E+00  0.00000000E+00  0.00000000E+00
  0.00000000E+00  0.00000000E+00  0.00000000E+00
