Sodilite                                
   1.00000000000000     
     9.3007842716877729    0.0000000000000000    0.0214126680509201
     0.0000000000000000    9.3096416260120805    0.0000000000000000
     0.0214215605588729    0.0000000000000000    9.3015145982225942
   O    Na   Al   Si   Cl   K 
    24     2     6     6     2     6
Direct
  0.1350223749076434  0.4751352287676769  0.1449818441576573
  0.8474207436540719  0.5379100737034923  0.1614656960233373
  0.8649776250923571  0.4751352287676769  0.8550181558423428
  0.1525792563459280  0.5379100737034923  0.8385343039766631
  0.1526064291250587  0.1453888335486514  0.4734543143714670
  0.1538846549633166  0.8574627668845800  0.5361076152099512
  0.8461153450366836  0.8574627668845800  0.4638923847900487
  0.8473935708749410  0.1453888335486514  0.5265456856285328
  0.4724122213166521  0.1553326104446356  0.1438435420983310
  0.5275877786833476  0.1553326104446356  0.8561564579016691
  0.4651032965817012  0.8485521848689193  0.8559519948587105
  0.5348967034182986  0.8485521848689193  0.1440480051412897
  0.9712796816227016  0.6469202454473446  0.6525296570337863
  0.0270645384870310  0.3589037029453835  0.6543932934349335
  0.9729354615129689  0.3589037029453835  0.3456067065650666
  0.0287203183772988  0.6469202454473446  0.3474703429662137
  0.6435170740328110  0.6561612045157086  0.9702521616250154
  0.3564829259671888  0.6561612045157086  0.0297478383749845
  0.3550741212128549  0.3496572758822845  0.9741676860853864
  0.6449258787871449  0.3496572758822845  0.0258323139146134
  0.6556746735924004  0.9735176726927044  0.6452836551342174
  0.6511644824586237  0.0293169787610122  0.3570034841263546
  0.3443253264075994  0.9735176726927044  0.3547163448657822
  0.3488355175413763  0.0293169787610122  0.6429965158736446
  0.8027242126446692  0.7983230479114837  0.1973507821700034
  0.1972757873553314  0.7983230479114837  0.8026492178299965
  0.2494339313089409  0.5048891815533475 -0.0022078232123019
  0.7505660686910594  0.5048891815533475  0.0022078232123019
 -0.0000000000000000  0.2534206977168581  0.5000000000000000
 -0.0000000000000000  0.7537555212630054  0.5000000000000000
  0.4998080923629326  0.0016885968460961  0.2495947914354661
  0.5001919076370672  0.0016885968460961  0.7504052085645343
  0.2497589497499043  0.0016141796593789  0.5013507635180673
  0.7502410502500958  0.0016141796593789  0.4986492364819325
  0.5000000000000000  0.2530553332735580 -0.0000000000000000
  0.5000000000000000  0.7530514602498147 -0.0000000000000000
 -0.0033160748755202  0.5049595202405742  0.2496941691358900
  0.0033160748755202  0.5049595202405742  0.7503058308641102
 -0.0000000000000000 -0.0612152336721271 -0.0000000000000000
  0.5000000000000000  0.5055328955725517  0.5000000000000000
  0.1718480084571678  0.1717115243846410  0.1724940076133160
  0.8281519915428320  0.1717115243846410  0.8275059923866842
  0.6849242883079930  0.6852169706845974  0.6843157372928331
  0.3187355906839847  0.3185378630556586  0.6820083357399561
  0.6812644093160150  0.3185378630556586  0.3179916642600443
  0.3150757116920073  0.6852169706845974  0.3156842627071672
 
  0.00000000E+00  0.00000000E+00  0.00000000E+00
  0.00000000E+00  0.00000000E+00  0.00000000E+00
  0.00000000E+00  0.00000000E+00  0.00000000E+00
  0.00000000E+00  0.00000000E+00  0.00000000E+00
  0.00000000E+00  0.00000000E+00  0.00000000E+00
  0.00000000E+00  0.00000000E+00  0.00000000E+00
  0.00000000E+00  0.00000000E+00  0.00000000E+00
  0.00000000E+00  0.00000000E+00  0.00000000E+00
  0.00000000E+00  0.00000000E+00  0.00000000E+00
  0.00000000E+00  0.00000000E+00  0.00000000E+00
  0.00000000E+00  0.00000000E+00  0.00000000E+00
  0.00000000E+00  0.00000000E+00  0.00000000E+00
  0.00000000E+00  0.00000000E+00  0.00000000E+00
  0.00000000E+00  0.00000000E+00  0.00000000E+00
  0.00000000E+00  0.00000000E+00  0.00000000E+00
  0.00000000E+00  0.00000000E+00  0.00000000E+00
  0.00000000E+00  0.00000000E+00  0.00000000E+00
  0.00000000E+00  0.00000000E+00  0.00000000E+00
  0.00000000E+00  0.00000000E+00  0.00000000E+00
  0.00000000E+00  0.00000000E+00  0.00000000E+00
  0.00000000E+00  0.00000000E+00  0.00000000E+00
  0.00000000E+00  0.00000000E+00  0.00000000E+00
  0.00000000E+00  0.00000000E+00  0.00000000E+00
  0.00000000E+00  0.00000000E+00  0.00000000E+00
  0.00000000E+00  0.00000000E+00  0.00000000E+00
  0.00000000E+00  0.00000000E+00  0.00000000E+00
  0.00000000E+00  0.00000000E+00  0.00000000E+00
  0.00000000E+00  0.00000000E+00  0.00000000E+00
  0.00000000E+00  0.00000000E+00  0.00000000E+00
  0.00000000E+00  0.00000000E+00  0.00000000E+00
  0.00000000E+00  0.00000000E+00  0.00000000E+00
  0.00000000E+00  0.00000000E+00  0.00000000E+00
  0.00000000E+00  0.00000000E+00  0.00000000E+00
  0.00000000E+00  0.00000000E+00  0.00000000E+00
  0.00000000E+00  0.00000000E+00  0.00000000E+00
  0.00000000E+00  0.00000000E+00  0.00000000E+00
  0.00000000E+00  0.00000000E+00  0.00000000E+00
  0.00000000E+00  0.00000000E+00  0.00000000E+00
  0.00000000E+00  0.00000000E+00  0.00000000E+00
  0.00000000E+00  0.00000000E+00  0.00000000E+00
  0.00000000E+00  0.00000000E+00  0.00000000E+00
  0.00000000E+00  0.00000000E+00  0.00000000E+00
  0.00000000E+00  0.00000000E+00  0.00000000E+00
  0.00000000E+00  0.00000000E+00  0.00000000E+00
  0.00000000E+00  0.00000000E+00  0.00000000E+00
  0.00000000E+00  0.00000000E+00  0.00000000E+00
