Sodilite                                
   1.00000000000000     
     9.1418386150181963    0.0000000010031559    0.0000000000000000
    -0.0000000010031559    9.1418386150181963    0.0000000000000000
     0.0000000000000000    0.0000000000000000    9.1722408599176095
   O    Na   Al   Si   Cl   K 
    24     4     6     6     2     4
Direct
  0.1443833829495195  0.4616804806095269  0.1513913861780537
  0.8556166170504801  0.5383195193904731  0.1513913861780537
  0.8598121716375634  0.4463762214180917  0.8480666766810178
  0.1401878283624364  0.5536237785819093  0.8480666766810178
  0.1381802967028375  0.1292151848998863  0.4621868909134280
  0.1654809029248559  0.8449984955823823  0.5521086299493028
  0.8618197032971623  0.8707848151001136  0.4621868909134280
  0.8345190970751439  0.1550015044176178  0.5521086299493028
  0.4611546483657268  0.1535853436187198  0.1417225040138278
  0.5526962679135869  0.1504682769687185  0.8575211011884393
  0.4473037320864131  0.8495317230312812  0.8575211011884393
  0.5388453516342734  0.8464146563812802  0.1417225040138278
  0.9463762214180907  0.6401878283624366  0.6519333233189821
  0.0536237785819084  0.3598121716375642  0.6519333233189822
  0.9616804806095269  0.3556166170504803  0.3486086138219462
  0.0383195193904730  0.6443833829495199  0.3486086138219462
  0.6550015044176177  0.6654809029248561  0.9478913700506972
  0.3707848151001139  0.6381802967028377  0.0378131090865718
  0.3449984955823827  0.3345190970751441  0.9478913700506972
  0.6292151848998864  0.3618197032971622  0.0378131090865718
  0.6504682769687188  0.9473037320864131  0.6424788988115607
  0.6535853436187198  0.0388453516342732  0.3582774959861724
  0.3464146563812802  0.9611546483657266  0.3582774959861724
  0.3495317230312815  0.0526962679135870  0.6424788988115607
  0.8030792206915726  0.1961405384014274  0.8038280896516576
  0.1969207793084276  0.8038594615985726  0.8038280896516576
  0.6961405384014274  0.6969207793084274  0.6961719103483424
  0.3038594615985727  0.3030792206915725  0.6961719103483424
  0.2501087907371164  0.4966774443371313 -0.0048858726652023
  0.7498912092628834  0.5033225556628689 -0.0048858726652023
 -0.0033225556628686  0.2498912092628833  0.5048858726652027
  0.0033225556628686  0.7501087907371166  0.5048858726652027
  0.5000000000000000 -0.0000000000000000  0.2500000000000000
  0.5000000000000000 -0.0000000000000000  0.7500000000000000
  0.2498424609087743 -0.0028972053021839  0.5044394425809122
  0.7501575390912255  0.0028972053021839  0.5044394425809122
  0.4971027946978162  0.2501575390912257 -0.0044394425809121
  0.5028972053021842  0.7498424609087745 -0.0044394425809121
 -0.0000000000000000  0.5000000000000000  0.2500000000000000
 -0.0000000000000000  0.5000000000000000  0.7500000000000000
 -0.0000000000000000 -0.0000000000000000 -0.0762532321329542
  0.5000000000000000  0.5000000000000000  0.5762532321329541
  0.1623822957267523  0.1626925242195484  0.1642231649741042
  0.8376177042732472  0.8373074757804512  0.1642231649741042
  0.6626925242195488  0.3376177042732477  0.3357768350258957
  0.3373074757804519  0.6623822957267528  0.3357768350258957
 
  0.00000000E+00  0.00000000E+00  0.00000000E+00
  0.00000000E+00  0.00000000E+00  0.00000000E+00
  0.00000000E+00  0.00000000E+00  0.00000000E+00
  0.00000000E+00  0.00000000E+00  0.00000000E+00
  0.00000000E+00  0.00000000E+00  0.00000000E+00
  0.00000000E+00  0.00000000E+00  0.00000000E+00
  0.00000000E+00  0.00000000E+00  0.00000000E+00
  0.00000000E+00  0.00000000E+00  0.00000000E+00
  0.00000000E+00  0.00000000E+00  0.00000000E+00
  0.00000000E+00  0.00000000E+00  0.00000000E+00
  0.00000000E+00  0.00000000E+00  0.00000000E+00
  0.00000000E+00  0.00000000E+00  0.00000000E+00
  0.00000000E+00  0.00000000E+00  0.00000000E+00
  0.00000000E+00  0.00000000E+00  0.00000000E+00
  0.00000000E+00  0.00000000E+00  0.00000000E+00
  0.00000000E+00  0.00000000E+00  0.00000000E+00
  0.00000000E+00  0.00000000E+00  0.00000000E+00
  0.00000000E+00  0.00000000E+00  0.00000000E+00
  0.00000000E+00  0.00000000E+00  0.00000000E+00
  0.00000000E+00  0.00000000E+00  0.00000000E+00
  0.00000000E+00  0.00000000E+00  0.00000000E+00
  0.00000000E+00  0.00000000E+00  0.00000000E+00
  0.00000000E+00  0.00000000E+00  0.00000000E+00
  0.00000000E+00  0.00000000E+00  0.00000000E+00
  0.00000000E+00  0.00000000E+00  0.00000000E+00
  0.00000000E+00  0.00000000E+00  0.00000000E+00
  0.00000000E+00  0.00000000E+00  0.00000000E+00
  0.00000000E+00  0.00000000E+00  0.00000000E+00
  0.00000000E+00  0.00000000E+00  0.00000000E+00
  0.00000000E+00  0.00000000E+00  0.00000000E+00
  0.00000000E+00  0.00000000E+00  0.00000000E+00
  0.00000000E+00  0.00000000E+00  0.00000000E+00
  0.00000000E+00  0.00000000E+00  0.00000000E+00
  0.00000000E+00  0.00000000E+00  0.00000000E+00
  0.00000000E+00  0.00000000E+00  0.00000000E+00
  0.00000000E+00  0.00000000E+00  0.00000000E+00
  0.00000000E+00  0.00000000E+00  0.00000000E+00
  0.00000000E+00  0.00000000E+00  0.00000000E+00
  0.00000000E+00  0.00000000E+00  0.00000000E+00
  0.00000000E+00  0.00000000E+00  0.00000000E+00
  0.00000000E+00  0.00000000E+00  0.00000000E+00
  0.00000000E+00  0.00000000E+00  0.00000000E+00
  0.00000000E+00  0.00000000E+00  0.00000000E+00
  0.00000000E+00  0.00000000E+00  0.00000000E+00
  0.00000000E+00  0.00000000E+00  0.00000000E+00
  0.00000000E+00  0.00000000E+00  0.00000000E+00
