Sodilite                                
   1.00000000000000     
     9.1738672991953116    0.0249271384425436   -0.0033677082112322
     0.0249285301429768    9.1824103267224970    0.0265124359523418
    -0.0033651733932461    0.0265076193759519    9.1726311389388790
   O    Na   Al   Si   Cl   K 
    24     4     6     6     2     4
Direct
  0.1534434944000608  0.4570714926380103  0.1636300103255634
  0.8683699197271421  0.5388550083342477  0.1465103691109095
  0.8508981978309516  0.4515168074468429  0.8410772426343371
  0.1361090186160885  0.5375423462832654  0.8607117785578157
  0.1467661607954872  0.1351938775455363  0.4615038113159567
  0.1629525210016826  0.8502909155649837  0.5432520860203764
  0.8569179959641944  0.8653536911399788  0.4654147382758644
  0.8436237024785079  0.1515172962070757  0.5508154644097579
  0.4612511758939367  0.1439756206666009  0.1352976168524206
  0.5523482247868552  0.1605078609574523  0.8520506384873346
  0.4652093459888761  0.8541865455970623  0.8662262129228731
  0.5419280871780278  0.8413937007349301  0.1539153488839607
  0.9627788798899700  0.6387316172646439  0.6529047209506305
  0.0535125168407015  0.3549795489299125  0.6567956401417905
  0.9546322557323623  0.3605688637495340  0.3539314562000770
  0.0457209109208411  0.6468954763857704  0.3466012434039818
  0.6419310132299388  0.6480232138939118  0.9637464846610422
  0.3547388103245808  0.6559436901845259  0.0466479458692005
  0.3632256019592544  0.3494507449224664  0.9536614596925798
  0.6463340020793500  0.3459332887729373  0.0527542284187613
  0.6463242698612698  0.9595878846095672  0.6363237664865962
  0.6625293583298690  0.0497843953359097  0.3528558456498321
  0.3553502897719531  0.9584826923662975  0.3645013626690665
  0.3445972240996727  0.0479596181447111  0.6514664549237272
  0.7963294518602868  0.2054627286879240  0.7951992580525744
  0.3091543505755082  0.3061881437991070  0.6906628501682576
  0.6918582676750638  0.3076801291660254  0.3088220181758458
  0.3130736357311221  0.6817219527637352  0.3132215070897068
  0.2538776333816496  0.4984246268356251  0.0061301570576568
  0.7531228307619141  0.4960965452700835  0.0013009907100724
  0.0013458929482631  0.2507968888276673  0.5056261808754746
  0.0060294453891135  0.7500420463041313  0.5033741266801091
  0.5058112610064764 -0.0000111926174155  0.2536428794838611
  0.5029282569767395  0.0044059123923913  0.7531463040802282
  0.2533515347790349 -0.0011565358931814  0.5055491230063538
  0.7530121811010627  0.0059108929486586  0.5021893467099409
  0.5060345624908421  0.2501541481418141 -0.0003666579104025
  0.5019769272444170  0.7497497221027307  0.0071891967259659
  0.0056398591351376  0.4999389622431180  0.2535133109418082
  0.0013344050435756  0.4956509297346670  0.7532915236780647
 -0.0375062317259330  0.0416021994140951 -0.0376960141520206
  0.4718134551415920  0.4641231036091258  0.4714833816745885
  0.1729606757040516  0.1681324588344917  0.1727194368494659
  0.8333692220259901  0.8299013698692640  0.1713147618481985
  0.1709641875323827  0.8287514236098422  0.8343733724682698
  0.6620252175201352  0.6626873462799251  0.6627170189215263
 
  0.00000000E+00  0.00000000E+00  0.00000000E+00
  0.00000000E+00  0.00000000E+00  0.00000000E+00
  0.00000000E+00  0.00000000E+00  0.00000000E+00
  0.00000000E+00  0.00000000E+00  0.00000000E+00
  0.00000000E+00  0.00000000E+00  0.00000000E+00
  0.00000000E+00  0.00000000E+00  0.00000000E+00
  0.00000000E+00  0.00000000E+00  0.00000000E+00
  0.00000000E+00  0.00000000E+00  0.00000000E+00
  0.00000000E+00  0.00000000E+00  0.00000000E+00
  0.00000000E+00  0.00000000E+00  0.00000000E+00
  0.00000000E+00  0.00000000E+00  0.00000000E+00
  0.00000000E+00  0.00000000E+00  0.00000000E+00
  0.00000000E+00  0.00000000E+00  0.00000000E+00
  0.00000000E+00  0.00000000E+00  0.00000000E+00
  0.00000000E+00  0.00000000E+00  0.00000000E+00
  0.00000000E+00  0.00000000E+00  0.00000000E+00
  0.00000000E+00  0.00000000E+00  0.00000000E+00
  0.00000000E+00  0.00000000E+00  0.00000000E+00
  0.00000000E+00  0.00000000E+00  0.00000000E+00
  0.00000000E+00  0.00000000E+00  0.00000000E+00
  0.00000000E+00  0.00000000E+00  0.00000000E+00
  0.00000000E+00  0.00000000E+00  0.00000000E+00
  0.00000000E+00  0.00000000E+00  0.00000000E+00
  0.00000000E+00  0.00000000E+00  0.00000000E+00
  0.00000000E+00  0.00000000E+00  0.00000000E+00
  0.00000000E+00  0.00000000E+00  0.00000000E+00
  0.00000000E+00  0.00000000E+00  0.00000000E+00
  0.00000000E+00  0.00000000E+00  0.00000000E+00
  0.00000000E+00  0.00000000E+00  0.00000000E+00
  0.00000000E+00  0.00000000E+00  0.00000000E+00
  0.00000000E+00  0.00000000E+00  0.00000000E+00
  0.00000000E+00  0.00000000E+00  0.00000000E+00
  0.00000000E+00  0.00000000E+00  0.00000000E+00
  0.00000000E+00  0.00000000E+00  0.00000000E+00
  0.00000000E+00  0.00000000E+00  0.00000000E+00
  0.00000000E+00  0.00000000E+00  0.00000000E+00
  0.00000000E+00  0.00000000E+00  0.00000000E+00
  0.00000000E+00  0.00000000E+00  0.00000000E+00
  0.00000000E+00  0.00000000E+00  0.00000000E+00
  0.00000000E+00  0.00000000E+00  0.00000000E+00
  0.00000000E+00  0.00000000E+00  0.00000000E+00
  0.00000000E+00  0.00000000E+00  0.00000000E+00
  0.00000000E+00  0.00000000E+00  0.00000000E+00
  0.00000000E+00  0.00000000E+00  0.00000000E+00
  0.00000000E+00  0.00000000E+00  0.00000000E+00
  0.00000000E+00  0.00000000E+00  0.00000000E+00
