Sodilite                                
   1.00000000000000     
     9.0366253258175036    0.0280612006396430    0.0280612006396430
     0.0280612006396430    9.0366253258175036    0.0280612006396430
     0.0280612006396430    0.0280612006396430    9.0366253258175036
   O    Na   Al   Si   Cl   K 
    24     6     6     6     2     2
Direct
  0.1363581463741265  0.4502296643012779  0.1472789949543026
  0.8561008682361377  0.5626897179970303  0.1590478110898794
  0.8665781948533692  0.4459178325565980  0.8563524797505624
  0.1485098527579760  0.5608143083145969  0.8480659315512759
  0.1472789949543026  0.1363581463741265  0.4502296643012779
  0.1590478110898794  0.8561008682361377  0.5626897179970303
  0.8563524797505624  0.8665781948533692  0.4459178325565980
  0.8480659315512759  0.1485098527579760  0.5608143083145969
  0.4502296643012779  0.1472789949543026  0.1363581463741265
  0.5626897179970303  0.1590478110898794  0.8561008682361377
  0.4459178325565980  0.8563524797505624  0.8665781948533692
  0.5608143083145969  0.8480659315512759  0.1485098527579760
  0.9502296643012780  0.6363581463741262  0.6472789949543021
  0.0626897179970309  0.3561008682361376  0.6590478110898790
  0.9459178325565983  0.3665781948533694  0.3563524797505623
  0.0608143083145974  0.6485098527579761  0.3480659315512759
  0.6363581463741262  0.6472789949543021  0.9502296643012780
  0.3561008682361376  0.6590478110898790  0.0626897179970309
  0.3665781948533694  0.3563524797505623  0.9459178325565983
  0.6485098527579761  0.3480659315512759  0.0608143083145974
  0.6472789949543021  0.9502296643012780  0.6363581463741262
  0.6590478110898790  0.0626897179970309  0.3561008682361376
  0.3563524797505623  0.9459178325565983  0.3665781948533694
  0.3480659315512759  0.0608143083145974  0.6485098527579761
  0.8156274579491540  0.8174299386098733  0.1862654556901666
  0.8174299386098733  0.1862654556901666  0.8156274579491540
  0.1862654556901666  0.8156274579491540  0.8174299386098733
  0.3174299386098736  0.3156274579491540  0.6862654556901661
  0.6862654556901661  0.3174299386098736  0.3156274579491540
  0.3156274579491540  0.6862654556901661  0.3174299386098736
  0.2536700447996221  0.5058571236031879  0.0028270872312412
  0.7536700447996217  0.5028270872312409  0.0058571236031881
  0.0028270872312412  0.2536700447996221  0.5058571236031879
  0.0058571236031881  0.7536700447996217  0.5028270872312409
  0.5058571236031879  0.0028270872312412  0.2536700447996221
  0.5028270872312409  0.0058571236031881  0.7536700447996217
  0.2534195540729156  0.0011254748337215  0.5068199062253559
  0.7534195540729162  0.0068199062253559  0.5011254748337214
  0.5068199062253560  0.2534195540729156  0.0011254748337215
  0.5011254748337213  0.7534195540729162  0.0068199062253559
  0.0011254748337215  0.5068199062253559  0.2534195540729156
  0.0068199062253559  0.5011254748337213  0.7534195540729162
 -0.0359252364293091 -0.0359252364293091 -0.0359252364293091
  0.4640747635706908  0.4640747635706908  0.4640747635706908
  0.1549393906769368  0.1549393906769368  0.1549393906769368
  0.6549393906769372  0.6549393906769372  0.6549393906769372
 
  0.00000000E+00  0.00000000E+00  0.00000000E+00
  0.00000000E+00  0.00000000E+00  0.00000000E+00
  0.00000000E+00  0.00000000E+00  0.00000000E+00
  0.00000000E+00  0.00000000E+00  0.00000000E+00
  0.00000000E+00  0.00000000E+00  0.00000000E+00
  0.00000000E+00  0.00000000E+00  0.00000000E+00
  0.00000000E+00  0.00000000E+00  0.00000000E+00
  0.00000000E+00  0.00000000E+00  0.00000000E+00
  0.00000000E+00  0.00000000E+00  0.00000000E+00
  0.00000000E+00  0.00000000E+00  0.00000000E+00
  0.00000000E+00  0.00000000E+00  0.00000000E+00
  0.00000000E+00  0.00000000E+00  0.00000000E+00
  0.00000000E+00  0.00000000E+00  0.00000000E+00
  0.00000000E+00  0.00000000E+00  0.00000000E+00
  0.00000000E+00  0.00000000E+00  0.00000000E+00
  0.00000000E+00  0.00000000E+00  0.00000000E+00
  0.00000000E+00  0.00000000E+00  0.00000000E+00
  0.00000000E+00  0.00000000E+00  0.00000000E+00
  0.00000000E+00  0.00000000E+00  0.00000000E+00
  0.00000000E+00  0.00000000E+00  0.00000000E+00
  0.00000000E+00  0.00000000E+00  0.00000000E+00
  0.00000000E+00  0.00000000E+00  0.00000000E+00
  0.00000000E+00  0.00000000E+00  0.00000000E+00
  0.00000000E+00  0.00000000E+00  0.00000000E+00
  0.00000000E+00  0.00000000E+00  0.00000000E+00
  0.00000000E+00  0.00000000E+00  0.00000000E+00
  0.00000000E+00  0.00000000E+00  0.00000000E+00
  0.00000000E+00  0.00000000E+00  0.00000000E+00
  0.00000000E+00  0.00000000E+00  0.00000000E+00
  0.00000000E+00  0.00000000E+00  0.00000000E+00
  0.00000000E+00  0.00000000E+00  0.00000000E+00
  0.00000000E+00  0.00000000E+00  0.00000000E+00
  0.00000000E+00  0.00000000E+00  0.00000000E+00
  0.00000000E+00  0.00000000E+00  0.00000000E+00
  0.00000000E+00  0.00000000E+00  0.00000000E+00
  0.00000000E+00  0.00000000E+00  0.00000000E+00
  0.00000000E+00  0.00000000E+00  0.00000000E+00
  0.00000000E+00  0.00000000E+00  0.00000000E+00
  0.00000000E+00  0.00000000E+00  0.00000000E+00
  0.00000000E+00  0.00000000E+00  0.00000000E+00
  0.00000000E+00  0.00000000E+00  0.00000000E+00
  0.00000000E+00  0.00000000E+00  0.00000000E+00
  0.00000000E+00  0.00000000E+00  0.00000000E+00
  0.00000000E+00  0.00000000E+00  0.00000000E+00
  0.00000000E+00  0.00000000E+00  0.00000000E+00
  0.00000000E+00  0.00000000E+00  0.00000000E+00
