Sodilite                                
   1.00000000000000     
     9.0998647310963836   -0.0445905467610759    0.0111160812035454
    -0.0445802625155226    9.0978060602042632   -0.0116610593809922
     0.0111322491473622   -0.0116728206457706    9.1013178041814289
   O    Na   Al   Si   Cl   K 
    24     5     6     6     2     3
Direct
  0.1402727168804338  0.4481335544203835  0.1485847332813121
  0.8575432373435057  0.5549846809728095  0.1459667492488238
  0.8570087767808943  0.4520519350525273  0.8449275227164590
  0.1403343396060558  0.5477903215897306  0.8442335358776095
  0.1613436400638535  0.1566187900392079  0.4420463241363544
  0.1387938322407340  0.8716852731882315  0.5385116966429229
  0.8340705207408290  0.8472202705536787  0.4405708611963545
  0.8604127863916431  0.1288077755713890  0.5425240228842583
  0.4433044156475531  0.1527978643490245  0.1382523199420562
  0.5478244925185096  0.1525292132265338  0.8566271126641185
  0.4538089047054444  0.8518756715887469  0.8548795089431540
  0.5523119285811492  0.8489894009859049  0.1394429844836090
  0.9472421521458508  0.6487823948146176  0.6519023016793732
  0.0487887677869509  0.3631820600493482  0.6423356137963632
  0.9404416775183169  0.3554187897651678  0.3398638942096329
  0.0467126714136772  0.6358807131663599  0.3503164451057398
  0.6457469291175461  0.6565696091757657  0.9424133521512504
  0.3618903504992360  0.6490320476376471  0.0424570338390680
  0.3530089226302688  0.3462406170200593  0.9430261093539772
  0.6355088006038229  0.3537031255798017  0.0517322304086178
  0.6470841902547813  0.9500245431538953  0.6336725778396763
  0.6533273947993417  0.0574407716766946  0.3512905455492898
  0.3543121308965154  0.9546921099561858  0.3612983801688582
  0.3406702750106115  0.0546765943624114  0.6441495733961440
  0.1927274702193378  0.1949362226496918  0.1906828678851754
  0.8053238464179859  0.8059462089186796  0.1894741013932100
  0.6871822137543778  0.6849113890840125  0.6834272281360558
  0.3136717858551526  0.3144839134205504  0.6837111659759217
  0.6876915132236996  0.3107707897133597  0.3101728130338472
  0.2482500107263141  0.4994727709048771 -0.0050938837672833
  0.7478997366425252  0.5024524789410734 -0.0049132493704988
  0.0002718996645852  0.2516253561788744  0.4908155526620399
 -0.0068280558639587  0.7521078618174651  0.4935806003725762
  0.5003383231217100  0.0031567285831834  0.2454046823173147
  0.4977647644915428  0.0035058748411148  0.7442864058136576
  0.2482079578328757  0.0085939438717608  0.4950885634509432
  0.7484589617778705 -0.0025682072403988  0.4912093203741519
  0.4957475706956149  0.2517680760211128 -0.0035489694132794
  0.5024159335046453  0.7518141340167084 -0.0054531702279876
 -0.0037805695146740  0.4990332196904627  0.2453857485085467
 -0.0023887487491609  0.5027505759502791  0.7445353868987543
 -0.0015085661237424  0.0013234203941698  0.0760664665408897
  0.5351467959403107  0.4644961554525796  0.5298884779404975
  0.8393901050810910  0.1601370115905859  0.8359033103748466
  0.1598445238759506  0.8416296938582202  0.8370183403196220
  0.3424086732484198  0.6585242534455129  0.3413328112659740
 
  0.00000000E+00  0.00000000E+00  0.00000000E+00
  0.00000000E+00  0.00000000E+00  0.00000000E+00
  0.00000000E+00  0.00000000E+00  0.00000000E+00
  0.00000000E+00  0.00000000E+00  0.00000000E+00
  0.00000000E+00  0.00000000E+00  0.00000000E+00
  0.00000000E+00  0.00000000E+00  0.00000000E+00
  0.00000000E+00  0.00000000E+00  0.00000000E+00
  0.00000000E+00  0.00000000E+00  0.00000000E+00
  0.00000000E+00  0.00000000E+00  0.00000000E+00
  0.00000000E+00  0.00000000E+00  0.00000000E+00
  0.00000000E+00  0.00000000E+00  0.00000000E+00
  0.00000000E+00  0.00000000E+00  0.00000000E+00
  0.00000000E+00  0.00000000E+00  0.00000000E+00
  0.00000000E+00  0.00000000E+00  0.00000000E+00
  0.00000000E+00  0.00000000E+00  0.00000000E+00
  0.00000000E+00  0.00000000E+00  0.00000000E+00
  0.00000000E+00  0.00000000E+00  0.00000000E+00
  0.00000000E+00  0.00000000E+00  0.00000000E+00
  0.00000000E+00  0.00000000E+00  0.00000000E+00
  0.00000000E+00  0.00000000E+00  0.00000000E+00
  0.00000000E+00  0.00000000E+00  0.00000000E+00
  0.00000000E+00  0.00000000E+00  0.00000000E+00
  0.00000000E+00  0.00000000E+00  0.00000000E+00
  0.00000000E+00  0.00000000E+00  0.00000000E+00
  0.00000000E+00  0.00000000E+00  0.00000000E+00
  0.00000000E+00  0.00000000E+00  0.00000000E+00
  0.00000000E+00  0.00000000E+00  0.00000000E+00
  0.00000000E+00  0.00000000E+00  0.00000000E+00
  0.00000000E+00  0.00000000E+00  0.00000000E+00
  0.00000000E+00  0.00000000E+00  0.00000000E+00
  0.00000000E+00  0.00000000E+00  0.00000000E+00
  0.00000000E+00  0.00000000E+00  0.00000000E+00
  0.00000000E+00  0.00000000E+00  0.00000000E+00
  0.00000000E+00  0.00000000E+00  0.00000000E+00
  0.00000000E+00  0.00000000E+00  0.00000000E+00
  0.00000000E+00  0.00000000E+00  0.00000000E+00
  0.00000000E+00  0.00000000E+00  0.00000000E+00
  0.00000000E+00  0.00000000E+00  0.00000000E+00
  0.00000000E+00  0.00000000E+00  0.00000000E+00
  0.00000000E+00  0.00000000E+00  0.00000000E+00
  0.00000000E+00  0.00000000E+00  0.00000000E+00
  0.00000000E+00  0.00000000E+00  0.00000000E+00
  0.00000000E+00  0.00000000E+00  0.00000000E+00
  0.00000000E+00  0.00000000E+00  0.00000000E+00
  0.00000000E+00  0.00000000E+00  0.00000000E+00
  0.00000000E+00  0.00000000E+00  0.00000000E+00
