Sodilite                                
   1.00000000000000     
     9.3433267765462205   -0.0092387359622487    0.0092387378657551
    -0.0092387378657551    9.3433267765462205    0.0092387359622487
     0.0092387359622487    0.0092387378657551    9.3433267765462205
   O    Na   Al   Si   Cl   K 
    24     1     6     6     2     7
Direct
  0.1469305783791414  0.4774115655644099  0.1529230296569906
  0.8575911256087045  0.5225462998459039  0.1512577797590101
  0.8565936351013852  0.4763816818700202  0.8430812980297649
  0.1443495179125077  0.5262663347804917  0.8469259139185618
  0.1530740860814382  0.1443495179125077  0.4737336652195083
  0.1569187019702346  0.8565936351013852  0.5236183181299794
  0.8487422202409906  0.8575911256087045  0.4774537001540959
  0.8470769703430092  0.1469305783791414  0.5225884344355901
  0.4763816818700202  0.1569187019702346  0.1434063648986151
  0.5262663347804917  0.1530740860814382  0.8556504820874925
  0.4774115655644099  0.8470769703430092  0.8530694216208576
  0.5225462998459039  0.8487422202409906  0.1424088743912957
  0.9782046063566582  0.6399118618188880  0.6473351570541350
  0.0330403687259914  0.3514090299207159  0.6576219649405998
  0.9771971614803928  0.3614950862255380  0.3499295296786528
  0.0244628466332370  0.6495263689995036  0.3413655550850162
  0.6495263689995036  0.6586344449149838  0.9755371533667633
  0.3614950862255380  0.6500704703213473  0.0228028385196072
  0.3514090299207159  0.3423780350593998  0.9669596312740086
  0.6399118618188879  0.3526648429458651  0.0217953936433416
  0.6500704703213473  0.9771971614803928  0.6385049137744618
  0.6586344449149838  0.0244628466332370  0.3504736310004964
  0.3526648429458651  0.9782046063566582  0.3600881381811124
  0.3423780350593998  0.0330403687259914  0.6485909700792840
  0.2947569669954166  0.2947569669954166  0.7052430330045837
  0.2519011423947023  0.4995052427014249 -0.0024258762535708
  0.7515528088338660  0.5021250575557472 -0.0026281253895695
  0.0024258762535708  0.2519011423947023  0.5004947572985752
  0.0026281253895695  0.7515528088338660  0.4978749424442528
  0.5021250575557472  0.0026281253895695  0.2484471911661336
  0.4995052427014249  0.0024258762535708  0.7480988576052976
  0.2516411037155590  0.0030630289085558  0.5010838529836469
  0.7514153241336089  0.0019319578246030  0.4974704193860434
  0.4989161470163534  0.2516411037155590 -0.0030630289085558
  0.5025295806139567  0.7514153241336089 -0.0019319578246030
  0.0019319578246030  0.5025295806139567  0.2485846758663912
  0.0030630289085558  0.4989161470163534  0.7483588962844405
  0.0032848178512318  0.0032848178512318 -0.0032848178512318
  0.4668636095014776  0.4668636095014776  0.5331363904985219
  0.1852606794434769  0.1858750450688688  0.1854294248366847
  0.8185344590833217  0.8185344590833217  0.1814655409166786
  0.8145705751633151  0.1852606794434769  0.8141249549311308
  0.1858750450688688  0.8145705751633151  0.8147393205565234
  0.6782838769930086  0.6777522172237544  0.6776954837661462
  0.6777522172237544  0.3223045162338536  0.3217161230069916
  0.3223045162338536  0.6782838769930086  0.3222477827762457
 
  0.00000000E+00  0.00000000E+00  0.00000000E+00
  0.00000000E+00  0.00000000E+00  0.00000000E+00
  0.00000000E+00  0.00000000E+00  0.00000000E+00
  0.00000000E+00  0.00000000E+00  0.00000000E+00
  0.00000000E+00  0.00000000E+00  0.00000000E+00
  0.00000000E+00  0.00000000E+00  0.00000000E+00
  0.00000000E+00  0.00000000E+00  0.00000000E+00
  0.00000000E+00  0.00000000E+00  0.00000000E+00
  0.00000000E+00  0.00000000E+00  0.00000000E+00
  0.00000000E+00  0.00000000E+00  0.00000000E+00
  0.00000000E+00  0.00000000E+00  0.00000000E+00
  0.00000000E+00  0.00000000E+00  0.00000000E+00
  0.00000000E+00  0.00000000E+00  0.00000000E+00
  0.00000000E+00  0.00000000E+00  0.00000000E+00
  0.00000000E+00  0.00000000E+00  0.00000000E+00
  0.00000000E+00  0.00000000E+00  0.00000000E+00
  0.00000000E+00  0.00000000E+00  0.00000000E+00
  0.00000000E+00  0.00000000E+00  0.00000000E+00
  0.00000000E+00  0.00000000E+00  0.00000000E+00
  0.00000000E+00  0.00000000E+00  0.00000000E+00
  0.00000000E+00  0.00000000E+00  0.00000000E+00
  0.00000000E+00  0.00000000E+00  0.00000000E+00
  0.00000000E+00  0.00000000E+00  0.00000000E+00
  0.00000000E+00  0.00000000E+00  0.00000000E+00
  0.00000000E+00  0.00000000E+00  0.00000000E+00
  0.00000000E+00  0.00000000E+00  0.00000000E+00
  0.00000000E+00  0.00000000E+00  0.00000000E+00
  0.00000000E+00  0.00000000E+00  0.00000000E+00
  0.00000000E+00  0.00000000E+00  0.00000000E+00
  0.00000000E+00  0.00000000E+00  0.00000000E+00
  0.00000000E+00  0.00000000E+00  0.00000000E+00
  0.00000000E+00  0.00000000E+00  0.00000000E+00
  0.00000000E+00  0.00000000E+00  0.00000000E+00
  0.00000000E+00  0.00000000E+00  0.00000000E+00
  0.00000000E+00  0.00000000E+00  0.00000000E+00
  0.00000000E+00  0.00000000E+00  0.00000000E+00
  0.00000000E+00  0.00000000E+00  0.00000000E+00
  0.00000000E+00  0.00000000E+00  0.00000000E+00
  0.00000000E+00  0.00000000E+00  0.00000000E+00
  0.00000000E+00  0.00000000E+00  0.00000000E+00
  0.00000000E+00  0.00000000E+00  0.00000000E+00
  0.00000000E+00  0.00000000E+00  0.00000000E+00
  0.00000000E+00  0.00000000E+00  0.00000000E+00
  0.00000000E+00  0.00000000E+00  0.00000000E+00
  0.00000000E+00  0.00000000E+00  0.00000000E+00
  0.00000000E+00  0.00000000E+00  0.00000000E+00
