Sodilite                                
   1.00000000000000     
     9.2274308337510256   -0.0353455486582717   -0.0144386777405026
    -0.0353304098648391    9.2278539015865668   -0.0129554922891177
    -0.0144300165946499   -0.0129478579012900    9.2274998374433963
   O    Na   Al   Si   Cl   K 
    24     3     6     6     2     5
Direct
  0.1412508793488189  0.4601510389284830  0.1480419414616191
  0.8537219819719684  0.5431954845456056  0.1506946037187646
  0.8583309987726330  0.4616874200096877  0.8468729716276666
  0.1437304709405010  0.5353747551586214  0.8402353094491631
  0.1604550234066925  0.1520107613499919  0.4555930868035142
  0.1419620199299303  0.8645166164489457  0.5307234513128947
  0.8380590745139760  0.8471849551610077  0.4496409133594377
  0.8535924476855486  0.1322032640236320  0.5318445006033831
  0.4593000855956607  0.1504567416376456  0.1397259885619685
  0.5334913189901475  0.1525354924889847  0.8512940924209171
  0.4623254513712244  0.8501468652171641  0.8571697462013760
  0.5451020920113444  0.8425654391322347  0.1421066024614120
  0.9560969834970456  0.6507113832348324  0.6557394947714977
  0.0299697902941646  0.3620902151362313  0.6412488682032838
  0.9604868430178570  0.3493733267225378  0.3358485976558404
  0.0365512293597639  0.6341618933730512  0.3510089612994672
  0.6486199594369269  0.6569096011007446  0.9518649491225608
  0.3621750211221721  0.6471615593574576  0.0318694000459322
  0.3495712940000128  0.3413642046279772  0.9624658890806769
  0.6372716110111347  0.3506911159945273  0.0323102929700023
  0.6604130338606415  0.9547150736332664  0.6471211851179176
  0.6423792063162718  0.0351982984501496  0.3620607132515190
  0.3401690263141089  0.9616760571630214  0.3454092568458494
  0.3514964594131155  0.0317411433239391  0.6326994663175084
  0.1911969568485875  0.1909798077756290  0.1932769569286602
  0.8026681338461767  0.8011713173216740  0.1971694417404883
  0.7036540691240346  0.7024328933071154  0.7020146768568245
  0.2482469249991751  0.4977310277184717 -0.0052033366778446
  0.7486528943085295  0.5014410293024228 -0.0045820417055209
 -0.0005927381568318  0.2478418085457581  0.4911876325364875
 -0.0060233105847003  0.7488569427391224  0.4955352312053029
  0.4975511937725038 -0.0035289759965331  0.2449416201492748
  0.5014760867171550 -0.0028466669136128  0.7444729342518953
  0.2480770493035485  0.0012627178302021  0.4909246006458035
  0.7486131521157514 -0.0073168215923974  0.4965265048597817
  0.4957966906352568  0.2483198205341333 -0.0042976413067163
  0.5035590160066679  0.7488373492654857 -0.0046776492224112
 -0.0026011655570431  0.4971005069392041  0.2453993411652495
 -0.0031893775785241  0.5020068587815214  0.7449041344370256
 -0.0037371757846846 -0.0039080549026570  0.0640949026520059
  0.5368453045849535  0.5367620440485842  0.5330473700626122
  0.8310971998521317  0.1680818908368648  0.8313194467015076
  0.1686151894930561  0.8324717782229437  0.8305218697845317
  0.3267887914480453  0.3280148168076424  0.6692433003496291
  0.6706503488538584  0.3250320265223096  0.3255608067974163
  0.3261324635706921  0.6714331766863736  0.3250296151238258
 
  0.00000000E+00  0.00000000E+00  0.00000000E+00
  0.00000000E+00  0.00000000E+00  0.00000000E+00
  0.00000000E+00  0.00000000E+00  0.00000000E+00
  0.00000000E+00  0.00000000E+00  0.00000000E+00
  0.00000000E+00  0.00000000E+00  0.00000000E+00
  0.00000000E+00  0.00000000E+00  0.00000000E+00
  0.00000000E+00  0.00000000E+00  0.00000000E+00
  0.00000000E+00  0.00000000E+00  0.00000000E+00
  0.00000000E+00  0.00000000E+00  0.00000000E+00
  0.00000000E+00  0.00000000E+00  0.00000000E+00
  0.00000000E+00  0.00000000E+00  0.00000000E+00
  0.00000000E+00  0.00000000E+00  0.00000000E+00
  0.00000000E+00  0.00000000E+00  0.00000000E+00
  0.00000000E+00  0.00000000E+00  0.00000000E+00
  0.00000000E+00  0.00000000E+00  0.00000000E+00
  0.00000000E+00  0.00000000E+00  0.00000000E+00
  0.00000000E+00  0.00000000E+00  0.00000000E+00
  0.00000000E+00  0.00000000E+00  0.00000000E+00
  0.00000000E+00  0.00000000E+00  0.00000000E+00
  0.00000000E+00  0.00000000E+00  0.00000000E+00
  0.00000000E+00  0.00000000E+00  0.00000000E+00
  0.00000000E+00  0.00000000E+00  0.00000000E+00
  0.00000000E+00  0.00000000E+00  0.00000000E+00
  0.00000000E+00  0.00000000E+00  0.00000000E+00
  0.00000000E+00  0.00000000E+00  0.00000000E+00
  0.00000000E+00  0.00000000E+00  0.00000000E+00
  0.00000000E+00  0.00000000E+00  0.00000000E+00
  0.00000000E+00  0.00000000E+00  0.00000000E+00
  0.00000000E+00  0.00000000E+00  0.00000000E+00
  0.00000000E+00  0.00000000E+00  0.00000000E+00
  0.00000000E+00  0.00000000E+00  0.00000000E+00
  0.00000000E+00  0.00000000E+00  0.00000000E+00
  0.00000000E+00  0.00000000E+00  0.00000000E+00
  0.00000000E+00  0.00000000E+00  0.00000000E+00
  0.00000000E+00  0.00000000E+00  0.00000000E+00
  0.00000000E+00  0.00000000E+00  0.00000000E+00
  0.00000000E+00  0.00000000E+00  0.00000000E+00
  0.00000000E+00  0.00000000E+00  0.00000000E+00
  0.00000000E+00  0.00000000E+00  0.00000000E+00
  0.00000000E+00  0.00000000E+00  0.00000000E+00
  0.00000000E+00  0.00000000E+00  0.00000000E+00
  0.00000000E+00  0.00000000E+00  0.00000000E+00
  0.00000000E+00  0.00000000E+00  0.00000000E+00
  0.00000000E+00  0.00000000E+00  0.00000000E+00
  0.00000000E+00  0.00000000E+00  0.00000000E+00
  0.00000000E+00  0.00000000E+00  0.00000000E+00
