Sodilite                                
   1.00000000000000     
     9.1607670871744773   -0.0046955714974498   -0.0254005466144493
    -0.0046955714974498    9.1607670871744773   -0.0254005466144493
    -0.0253977773985720   -0.0253977773985720    9.1522767732294383
   O    Na   Al   Si   Cl   K 
    24     4     6     6     2     4
Direct
  0.1512327550015367  0.4481266677727546  0.1649002358249717
  0.8678915433808052  0.5387238415375523  0.1391126654563265
  0.8437328423787314  0.4453121933711897  0.8383675577425969
  0.1286707119317962  0.5349607607074439  0.8574006613863239
  0.1491191741530316  0.1422431539334638  0.4530370048450207
  0.1486245096061606  0.8542680330601424  0.5375922219386707
  0.8457104908648864  0.8574378856926689  0.4562210146256202
  0.8455518035891737  0.1393470279253264  0.5543235590939972
  0.4487547776169323  0.1471580836101691  0.1404801017025835
  0.5492226747241435  0.1523260008275558  0.8569314963294806
  0.4584035064089190  0.8476884269076200  0.8587004080417658
  0.5402187823451475  0.8428986051293039  0.1449609902853684
  0.9481266677727550  0.6512327550015369  0.6649002358249717
  0.0387238415375525  0.3678915433808053  0.6391126654563262
  0.9453121933711895  0.3437328423787321  0.3383675577425967
  0.0349607607074442  0.6286707119317962  0.3574006613863240
  0.6422431539334640  0.6491191741530316  0.9530370048450204
  0.3542680330601424  0.6486245096061606  0.0375922219386708
  0.3574378856926691  0.3457104908648860  0.9562210146256206
  0.6393470279253262  0.3455518035891743  0.0543235590939973
  0.6471580836101691  0.9487547776169321  0.6404801017025835
  0.6523260008275560  0.0492226747241437  0.3569314963294808
  0.3476884269076205  0.9584035064089187  0.3587004080417662
  0.3428986051293045  0.0402187823451479  0.6449609902853687
  0.1920378607466675  0.1917481088175695  0.1936561458532476
  0.8025704075384529  0.1956586642607904  0.8038289810960522
  0.6917481088175693  0.6920378607466678  0.6936561458532472
  0.6956586642607906  0.3025704075384524  0.3038289810960527
  0.2456776268336897  0.4933537174417026  0.0033242037987321
  0.7471053593111919  0.4936039496074318 -0.0026672238415023
 -0.0063960503925681  0.2471053593111918  0.4973327761584977
 -0.0066462825582976  0.7456776268336895  0.5033242037987321
  0.4986738433756353 -0.0016506210652345  0.2502478449972574
  0.4983493789347653 -0.0013261566243650  0.7502478449972572
  0.2462253622699180 -0.0014281508747209  0.4992436004576490
  0.7471604255673587 -0.0013952141432143  0.5014352605373096
  0.4986047858567861  0.2471604255673593  0.0014352605373093
  0.4985718491252792  0.7462253622699180 -0.0007563995423511
 -0.0016126724664588  0.4897319046864159  0.2501309967007687
 -0.0102680953135839  0.4983873275335411  0.7501309967007694
 -0.0041498385968653  0.0717302265801828 -0.0011924501731508
  0.5717302265801830  0.4958501614031349  0.4988075498268493
  0.8359292604143705  0.8332130186422767  0.1636856762728853
  0.1626435726987505  0.8355489358776305  0.8362790470280244
  0.3332130186422768  0.3359292604143709  0.6636856762728857
  0.3355489358776302  0.6626435726987501  0.3362790470280241
 
  0.00000000E+00  0.00000000E+00  0.00000000E+00
  0.00000000E+00  0.00000000E+00  0.00000000E+00
  0.00000000E+00  0.00000000E+00  0.00000000E+00
  0.00000000E+00  0.00000000E+00  0.00000000E+00
  0.00000000E+00  0.00000000E+00  0.00000000E+00
  0.00000000E+00  0.00000000E+00  0.00000000E+00
  0.00000000E+00  0.00000000E+00  0.00000000E+00
  0.00000000E+00  0.00000000E+00  0.00000000E+00
  0.00000000E+00  0.00000000E+00  0.00000000E+00
  0.00000000E+00  0.00000000E+00  0.00000000E+00
  0.00000000E+00  0.00000000E+00  0.00000000E+00
  0.00000000E+00  0.00000000E+00  0.00000000E+00
  0.00000000E+00  0.00000000E+00  0.00000000E+00
  0.00000000E+00  0.00000000E+00  0.00000000E+00
  0.00000000E+00  0.00000000E+00  0.00000000E+00
  0.00000000E+00  0.00000000E+00  0.00000000E+00
  0.00000000E+00  0.00000000E+00  0.00000000E+00
  0.00000000E+00  0.00000000E+00  0.00000000E+00
  0.00000000E+00  0.00000000E+00  0.00000000E+00
  0.00000000E+00  0.00000000E+00  0.00000000E+00
  0.00000000E+00  0.00000000E+00  0.00000000E+00
  0.00000000E+00  0.00000000E+00  0.00000000E+00
  0.00000000E+00  0.00000000E+00  0.00000000E+00
  0.00000000E+00  0.00000000E+00  0.00000000E+00
  0.00000000E+00  0.00000000E+00  0.00000000E+00
  0.00000000E+00  0.00000000E+00  0.00000000E+00
  0.00000000E+00  0.00000000E+00  0.00000000E+00
  0.00000000E+00  0.00000000E+00  0.00000000E+00
  0.00000000E+00  0.00000000E+00  0.00000000E+00
  0.00000000E+00  0.00000000E+00  0.00000000E+00
  0.00000000E+00  0.00000000E+00  0.00000000E+00
  0.00000000E+00  0.00000000E+00  0.00000000E+00
  0.00000000E+00  0.00000000E+00  0.00000000E+00
  0.00000000E+00  0.00000000E+00  0.00000000E+00
  0.00000000E+00  0.00000000E+00  0.00000000E+00
  0.00000000E+00  0.00000000E+00  0.00000000E+00
  0.00000000E+00  0.00000000E+00  0.00000000E+00
  0.00000000E+00  0.00000000E+00  0.00000000E+00
  0.00000000E+00  0.00000000E+00  0.00000000E+00
  0.00000000E+00  0.00000000E+00  0.00000000E+00
  0.00000000E+00  0.00000000E+00  0.00000000E+00
  0.00000000E+00  0.00000000E+00  0.00000000E+00
  0.00000000E+00  0.00000000E+00  0.00000000E+00
  0.00000000E+00  0.00000000E+00  0.00000000E+00
  0.00000000E+00  0.00000000E+00  0.00000000E+00
  0.00000000E+00  0.00000000E+00  0.00000000E+00
