Sodilite                                
   1.00000000000000     
     9.1083589554527542    0.0160562093364610    0.0150875227289763
     0.0160590325402973    9.0949629845591691   -0.0139893281892561
     0.0150914574071189   -0.0139820659478616    9.0938050295284576
   O    Na   Al   Si   Cl   K 
    24     5     6     6     2     3
Direct
  0.1400217803165122  0.4435272070833325  0.1519165197494386
  0.8582723646521095  0.5472327391435213  0.1526270756506384
  0.8573352274317076  0.4567792313302063  0.8488864339823603
  0.1417616651489786  0.5549026323672465  0.8510429574954895
  0.1494906389682130  0.1405985156281804  0.4438781163030401
  0.1502489445051225  0.8606631168138278  0.5560870874116217
  0.8462953807505346  0.8583905255396840  0.4562594963240947
  0.8483206322136804  0.1442991578084546  0.5460825724073609
  0.4413161525682047  0.1644576359928827  0.1541548248791229
  0.5425920702322122  0.1406925169441465  0.8721948821412643
  0.4442748705826534  0.8372122530639732  0.8471916534394407
  0.5410553105893026  0.8630128818431757  0.1310091612606239
  0.9559267722886443  0.6363887551058645  0.6454058389413511
  0.0549707565690834  0.3527228068030307  0.6591649114834744
  0.9467567835000069  0.3656147159200698  0.3563945933529597
  0.0543093048027722  0.6479660995556037  0.3428120290748522
  0.6356403811604397  0.6496135707989728  0.9583650303364425
  0.3523270949679683  0.6554255420466681  0.0577545507737248
  0.3634503886951706  0.3562131616722669  0.9456011866749942
  0.6450539318395088  0.3432795691349441  0.0533765390399680
  0.6446428790225643  0.9595364566349204  0.6392979866281682
  0.6540773011711410  0.0529492967954234  0.3525762175140597
  0.3523811683106809  0.9442426699245404  0.3661628314392851
  0.3426126487967289  0.0585411338308476  0.6452007545963860
  0.1941512009992210  0.1969213162924360  0.1972850753969871
  0.1918126848195424  0.8066478546915931  0.8076882256413241
  0.3104139089954721  0.3117670747015789  0.6897942101710240
  0.6830275869317546  0.3134171723802684  0.3143386381718795
  0.3099024068572759  0.6887346284723539  0.3110879550846030
  0.2489536536371697  0.5018675051719790  0.0027991313551456
  0.7477570662537829  0.4994937562568091  0.0029466539296823
  0.0011724627020428  0.2517520705484071  0.5020712280879597
  0.0013889183369317  0.7516600550019474  0.4991865822901906
  0.4953483953560899  0.0060890046863980  0.2516816400712020
  0.4925926337951399 -0.0004302181966289  0.7518322376244434
  0.2485889736497592  0.0017469045700129  0.5025718286596432
  0.7477382979664063  0.0036860377166347  0.4989567682345055
  0.4968766884388335  0.2513720679327801  0.0062284027163382
  0.4927819539499453  0.7516541600893989 -0.0007902096874871
  0.0003590501635481  0.5013840082310012  0.2513647191857604
  0.0022274516526572  0.4999806598347584  0.7514535740905482
  0.0790599563461784  0.0024780810185723  0.0026812414900600
  0.4603577858402746  0.4664108730338976  0.4666036083698881
  0.8372363786588225  0.8411921003887972  0.1596929171508892
  0.8383948287529427  0.1603600872551573  0.8405200423114894
  0.6567232668122671  0.6575526081400630  0.6565622787537628
 
  0.00000000E+00  0.00000000E+00  0.00000000E+00
  0.00000000E+00  0.00000000E+00  0.00000000E+00
  0.00000000E+00  0.00000000E+00  0.00000000E+00
  0.00000000E+00  0.00000000E+00  0.00000000E+00
  0.00000000E+00  0.00000000E+00  0.00000000E+00
  0.00000000E+00  0.00000000E+00  0.00000000E+00
  0.00000000E+00  0.00000000E+00  0.00000000E+00
  0.00000000E+00  0.00000000E+00  0.00000000E+00
  0.00000000E+00  0.00000000E+00  0.00000000E+00
  0.00000000E+00  0.00000000E+00  0.00000000E+00
  0.00000000E+00  0.00000000E+00  0.00000000E+00
  0.00000000E+00  0.00000000E+00  0.00000000E+00
  0.00000000E+00  0.00000000E+00  0.00000000E+00
  0.00000000E+00  0.00000000E+00  0.00000000E+00
  0.00000000E+00  0.00000000E+00  0.00000000E+00
  0.00000000E+00  0.00000000E+00  0.00000000E+00
  0.00000000E+00  0.00000000E+00  0.00000000E+00
  0.00000000E+00  0.00000000E+00  0.00000000E+00
  0.00000000E+00  0.00000000E+00  0.00000000E+00
  0.00000000E+00  0.00000000E+00  0.00000000E+00
  0.00000000E+00  0.00000000E+00  0.00000000E+00
  0.00000000E+00  0.00000000E+00  0.00000000E+00
  0.00000000E+00  0.00000000E+00  0.00000000E+00
  0.00000000E+00  0.00000000E+00  0.00000000E+00
  0.00000000E+00  0.00000000E+00  0.00000000E+00
  0.00000000E+00  0.00000000E+00  0.00000000E+00
  0.00000000E+00  0.00000000E+00  0.00000000E+00
  0.00000000E+00  0.00000000E+00  0.00000000E+00
  0.00000000E+00  0.00000000E+00  0.00000000E+00
  0.00000000E+00  0.00000000E+00  0.00000000E+00
  0.00000000E+00  0.00000000E+00  0.00000000E+00
  0.00000000E+00  0.00000000E+00  0.00000000E+00
  0.00000000E+00  0.00000000E+00  0.00000000E+00
  0.00000000E+00  0.00000000E+00  0.00000000E+00
  0.00000000E+00  0.00000000E+00  0.00000000E+00
  0.00000000E+00  0.00000000E+00  0.00000000E+00
  0.00000000E+00  0.00000000E+00  0.00000000E+00
  0.00000000E+00  0.00000000E+00  0.00000000E+00
  0.00000000E+00  0.00000000E+00  0.00000000E+00
  0.00000000E+00  0.00000000E+00  0.00000000E+00
  0.00000000E+00  0.00000000E+00  0.00000000E+00
  0.00000000E+00  0.00000000E+00  0.00000000E+00
  0.00000000E+00  0.00000000E+00  0.00000000E+00
  0.00000000E+00  0.00000000E+00  0.00000000E+00
  0.00000000E+00  0.00000000E+00  0.00000000E+00
  0.00000000E+00  0.00000000E+00  0.00000000E+00
