Sodilite                                
   1.00000000000000     
     9.0955378882470992    0.0137719352957988    0.0158445560062044
     0.0137647119220297    9.0943258367409854   -0.0145147620332108
     0.0158412037997910   -0.0145096892970932    9.1086918209529344
   O    Na   Al   Si   Cl   K 
    24     5     6     6     2     3
Direct
  0.1416184484532461  0.4562808188366840  0.1537201352139223
  0.8557219842194498  0.5460356223232444  0.1516386772165326
  0.8594165719842787  0.4438700481391734  0.8505035615759424
  0.1392891348222842  0.5560762068662526  0.8497691075610613
  0.1369408999743039  0.1309871464949185  0.4589862347229035
  0.1628233695083115  0.8471939848807958  0.5557240829393225
  0.8593207897573888  0.8722302518818692  0.4574537029875229
  0.8355115360067349  0.1541503166382457  0.5587242779423632
  0.4527956780121094  0.1526145767227267  0.1416850291351816
  0.5565109193704753  0.1519104124833876  0.8599699649440732
  0.4451070874782356  0.8510824786033302  0.8582632253250441
  0.5431946007115397  0.8488743393226047  0.1426586220169047
  0.9414157997956236  0.6451936218301589  0.6574210558263114
  0.0557972503578443  0.3661766169060747  0.6476083878417491
  0.9470561631831953  0.3525648504656819  0.3459045252919214
  0.0404082234044107  0.6392996456931642  0.3553586620066365
  0.6473144270463050  0.6592268813844512  0.9449830388469306
  0.3636314595733751  0.6453892146914573  0.0440244898270212
  0.3520124361095096  0.3427531343601856  0.9456656326191087
  0.6343577941076507  0.3564162902891658  0.0532299589673384
  0.6437549133103851  0.9455668159694548  0.6365467553042071
  0.6567386465382903  0.0533934726405203  0.3549730297447649
  0.3503740988085799  0.9584050463427128  0.3643713047294622
  0.3445713531285503  0.0577918054063049  0.6476868198567277
  0.8031708417872996  0.1971906984946072  0.8059379120685075
  0.1933282178183482  0.8077112873629724  0.8082382974985832
  0.6881888735040494  0.6897638863947335  0.6895255018901112
  0.3112935412783361  0.3111357692910412  0.6900390729675079
  0.6865322686825506  0.3143865881321496  0.3169122267151691
  0.2483442415035838  0.4991503290900204 -0.0014016044611822
  0.7482420843370270  0.5020904319513105 -0.0012223970683694
 -0.0060922635002126  0.2516791346911076  0.5046740074608483
  0.0004238601010195  0.7518319598773151  0.5074288695603928
  0.5005142348198998  0.0029404096003286  0.2522385563663312
  0.4981438582681275  0.0028123405015075  0.7510482456332065
  0.2483326755033012 -0.0007627449836728  0.5072577926336597
  0.7486433873610593  0.0062161140425292  0.5031784932358799
  0.4986339892215678  0.2513772464236185 -0.0004223886835307
  0.5000521440167235  0.7514305806306383 -0.0022706678556252
 -0.0036820556395498  0.4989417131463150  0.2522414663089085
 -0.0017595591264791  0.5025460903871448  0.7513996158766144
 -0.0024481415634669  0.0026556064491110 -0.0789753182519750
  0.5335841197324771  0.4666049894058621  0.5395862212760458
  0.1588474138191292  0.1597193807297673  0.1628305051116333
  0.8396239634832188  0.8404821970903175  0.1616723454223782
  0.3423987189299141  0.6566123921187090  0.3432129638519536
 
  0.00000000E+00  0.00000000E+00  0.00000000E+00
  0.00000000E+00  0.00000000E+00  0.00000000E+00
  0.00000000E+00  0.00000000E+00  0.00000000E+00
  0.00000000E+00  0.00000000E+00  0.00000000E+00
  0.00000000E+00  0.00000000E+00  0.00000000E+00
  0.00000000E+00  0.00000000E+00  0.00000000E+00
  0.00000000E+00  0.00000000E+00  0.00000000E+00
  0.00000000E+00  0.00000000E+00  0.00000000E+00
  0.00000000E+00  0.00000000E+00  0.00000000E+00
  0.00000000E+00  0.00000000E+00  0.00000000E+00
  0.00000000E+00  0.00000000E+00  0.00000000E+00
  0.00000000E+00  0.00000000E+00  0.00000000E+00
  0.00000000E+00  0.00000000E+00  0.00000000E+00
  0.00000000E+00  0.00000000E+00  0.00000000E+00
  0.00000000E+00  0.00000000E+00  0.00000000E+00
  0.00000000E+00  0.00000000E+00  0.00000000E+00
  0.00000000E+00  0.00000000E+00  0.00000000E+00
  0.00000000E+00  0.00000000E+00  0.00000000E+00
  0.00000000E+00  0.00000000E+00  0.00000000E+00
  0.00000000E+00  0.00000000E+00  0.00000000E+00
  0.00000000E+00  0.00000000E+00  0.00000000E+00
  0.00000000E+00  0.00000000E+00  0.00000000E+00
  0.00000000E+00  0.00000000E+00  0.00000000E+00
  0.00000000E+00  0.00000000E+00  0.00000000E+00
  0.00000000E+00  0.00000000E+00  0.00000000E+00
  0.00000000E+00  0.00000000E+00  0.00000000E+00
  0.00000000E+00  0.00000000E+00  0.00000000E+00
  0.00000000E+00  0.00000000E+00  0.00000000E+00
  0.00000000E+00  0.00000000E+00  0.00000000E+00
  0.00000000E+00  0.00000000E+00  0.00000000E+00
  0.00000000E+00  0.00000000E+00  0.00000000E+00
  0.00000000E+00  0.00000000E+00  0.00000000E+00
  0.00000000E+00  0.00000000E+00  0.00000000E+00
  0.00000000E+00  0.00000000E+00  0.00000000E+00
  0.00000000E+00  0.00000000E+00  0.00000000E+00
  0.00000000E+00  0.00000000E+00  0.00000000E+00
  0.00000000E+00  0.00000000E+00  0.00000000E+00
  0.00000000E+00  0.00000000E+00  0.00000000E+00
  0.00000000E+00  0.00000000E+00  0.00000000E+00
  0.00000000E+00  0.00000000E+00  0.00000000E+00
  0.00000000E+00  0.00000000E+00  0.00000000E+00
  0.00000000E+00  0.00000000E+00  0.00000000E+00
  0.00000000E+00  0.00000000E+00  0.00000000E+00
  0.00000000E+00  0.00000000E+00  0.00000000E+00
  0.00000000E+00  0.00000000E+00  0.00000000E+00
  0.00000000E+00  0.00000000E+00  0.00000000E+00
