Sodilite                                
   1.00000000000000     
     9.0385937691955114    0.0002453028355717    0.0321377388648905
     0.0002429067388851    9.0331822394894630   -0.0002429067388851
     0.0321377388648905   -0.0002453028355717    9.0385937691955114
   O    Na   Al   Si   Cl   K 
    24     6     6     6     2     2
Direct
  0.1336687510602494  0.4415603424475242  0.1445729020529069
  0.8551154347127181  0.5618436501356662  0.1562495546972149
  0.8641533492250409  0.4541438277233911  0.8537563908203575
  0.1474253004737782  0.5610993530428833  0.8454655296057546
  0.1549871456506182  0.1456978630704100  0.4383977826269463
  0.1459746373028694  0.8669564461158918  0.5583926643039747
  0.8437428539947639  0.8554121349582529  0.4415231594446684
  0.8556809346923350  0.1384464328782104  0.5484372761641431
  0.4378072871865669  0.1572995504955422  0.1451299556537114
  0.5498476558159312  0.1485443330670866  0.8647099469297354
  0.4421955800605689  0.8462087314409925  0.8546257834617638
  0.5570774274486485  0.8580126559737811  0.1360236015031942
  0.9515627238358569  0.6384464328782102  0.6443190653076650
  0.0584768405553316  0.3554121349582526  0.6562571460052361
  0.9416073356960253  0.3669564461158917  0.3540253626971306
  0.0616022173730536  0.6456978630704099  0.3450128543493817
  0.6352900530702646  0.6485443330670870  0.9501523441840688
  0.3548700443462887  0.6572995504955417  0.0621927128134330
  0.3639763984968061  0.3580126559737810  0.9429225725513514
  0.6453742165382362  0.3462087314409928  0.0578044199394313
  0.6462436091796426  0.9541438277233908  0.6358466507749591
  0.6545344703942454  0.0610993530428827  0.3525746995262218
  0.3554270979470931  0.9415603424475247  0.3663312489397506
  0.3437504453027854  0.0618436501356663  0.6448845652872819
  0.1866931139409458  0.1887592165472728  0.1872301386137280
  0.8149210808474441  0.8174102153055672  0.1849578747599396
  0.1854500379522721  0.8165745268542933  0.8161802359825985
  0.3150421252400604  0.3174102153055673  0.6850789191525559
  0.6838197640174015  0.3165745268542938  0.3145499620477276
  0.3127698613862722  0.6887592165472725  0.3133068860590540
  0.2499161233450082  0.5053057450168804  0.0007638276003943
  0.7500769220408957  0.5027854818080605  0.0039000434501141
  0.0036670418247553  0.2534477634043966  0.4990483128692406
  0.0009516871307593  0.7534477634043960  0.4963329581752445
  0.4992361723996056  0.0053057450168809  0.2500838766549916
  0.4960999565498858  0.0027854818080606  0.7499230779591043
  0.2500284757456517  0.0046044718100846  0.5008987581830486
  0.7499955987984829  0.0026977846990691  0.4949945593932781
  0.4989851606243193  0.2532186475131595  0.0030655401938835
  0.4969344598061165  0.7532186475131593  0.0010148393756806
 -0.0008987581830482  0.5046044718100841  0.2499715242543482
  0.0050054406067218  0.5026977846990690  0.7500044012015171
  0.0393744625171955 -0.0344182624019054  0.0396403872109252
  0.4603596127890748  0.4655817375980946  0.4606255374828043
  0.8471431336108809  0.1543890880934887  0.8459632833504181
  0.6540367166495819  0.6543890880934892  0.6528568663891191
 
  0.00000000E+00  0.00000000E+00  0.00000000E+00
  0.00000000E+00  0.00000000E+00  0.00000000E+00
  0.00000000E+00  0.00000000E+00  0.00000000E+00
  0.00000000E+00  0.00000000E+00  0.00000000E+00
  0.00000000E+00  0.00000000E+00  0.00000000E+00
  0.00000000E+00  0.00000000E+00  0.00000000E+00
  0.00000000E+00  0.00000000E+00  0.00000000E+00
  0.00000000E+00  0.00000000E+00  0.00000000E+00
  0.00000000E+00  0.00000000E+00  0.00000000E+00
  0.00000000E+00  0.00000000E+00  0.00000000E+00
  0.00000000E+00  0.00000000E+00  0.00000000E+00
  0.00000000E+00  0.00000000E+00  0.00000000E+00
  0.00000000E+00  0.00000000E+00  0.00000000E+00
  0.00000000E+00  0.00000000E+00  0.00000000E+00
  0.00000000E+00  0.00000000E+00  0.00000000E+00
  0.00000000E+00  0.00000000E+00  0.00000000E+00
  0.00000000E+00  0.00000000E+00  0.00000000E+00
  0.00000000E+00  0.00000000E+00  0.00000000E+00
  0.00000000E+00  0.00000000E+00  0.00000000E+00
  0.00000000E+00  0.00000000E+00  0.00000000E+00
  0.00000000E+00  0.00000000E+00  0.00000000E+00
  0.00000000E+00  0.00000000E+00  0.00000000E+00
  0.00000000E+00  0.00000000E+00  0.00000000E+00
  0.00000000E+00  0.00000000E+00  0.00000000E+00
  0.00000000E+00  0.00000000E+00  0.00000000E+00
  0.00000000E+00  0.00000000E+00  0.00000000E+00
  0.00000000E+00  0.00000000E+00  0.00000000E+00
  0.00000000E+00  0.00000000E+00  0.00000000E+00
  0.00000000E+00  0.00000000E+00  0.00000000E+00
  0.00000000E+00  0.00000000E+00  0.00000000E+00
  0.00000000E+00  0.00000000E+00  0.00000000E+00
  0.00000000E+00  0.00000000E+00  0.00000000E+00
  0.00000000E+00  0.00000000E+00  0.00000000E+00
  0.00000000E+00  0.00000000E+00  0.00000000E+00
  0.00000000E+00  0.00000000E+00  0.00000000E+00
  0.00000000E+00  0.00000000E+00  0.00000000E+00
  0.00000000E+00  0.00000000E+00  0.00000000E+00
  0.00000000E+00  0.00000000E+00  0.00000000E+00
  0.00000000E+00  0.00000000E+00  0.00000000E+00
  0.00000000E+00  0.00000000E+00  0.00000000E+00
  0.00000000E+00  0.00000000E+00  0.00000000E+00
  0.00000000E+00  0.00000000E+00  0.00000000E+00
  0.00000000E+00  0.00000000E+00  0.00000000E+00
  0.00000000E+00  0.00000000E+00  0.00000000E+00
  0.00000000E+00  0.00000000E+00  0.00000000E+00
  0.00000000E+00  0.00000000E+00  0.00000000E+00
