Sodilite                                
   1.00000000000000     
     9.2263433401334911    0.0134118220196099    0.0149006649150773
     0.0134179984888338    9.2275259578585018   -0.0362973442161209
     0.0149077268407834   -0.0363127741751161    9.2270081643948778
   O    Na   Al   Si   Cl   K 
    24     3     6     6     2     5
Direct
  0.1326816827212074  0.4682589886649052  0.1484490370858494
  0.8454016095702958  0.5383260783129420  0.1598622897095104
  0.8621081570559931  0.4647583184761258  0.8576583851687013
  0.1471316577202076  0.5452475993233981  0.8396198962285917
  0.1412208604989294  0.1378655074858854  0.4700231411471115
  0.1557385288892781  0.8492978151960595  0.5438672768425843
  0.8510673472583815  0.8658711333872575  0.4634276992548942
  0.8358490908671833  0.1506312389785008  0.5395123560601401
  0.4624617498504489  0.1586812117120339  0.1504492252845295
  0.5322971285184732  0.1492226387304715  0.8627965302005364
  0.4518842249645514  0.8430746549879441  0.8513700623540333
  0.5318727672323121  0.8529308918680540  0.1377522864023846
  0.9496296235737212  0.6528047787049626  0.6619477214923134
  0.0318635587431992  0.3678237832825980  0.6463613938316761
  0.9556444649633422  0.3480052997836577  0.3395451831975346
  0.0307413603942206  0.6354473030339454  0.3580510818294745
  0.6421199289467533  0.6574066316025931  0.9549094575813611
  0.3572112748302752  0.6498311923182439  0.0377389760665366
  0.3513064605001494  0.3474619586018508  0.9664812341223828
  0.6397178557711642  0.3495507237503563  0.0406536601822425
  0.6506938068531747  0.9568336836352080  0.6462604554148820
  0.6480231297230885  0.0397947893886345  0.3587633832769133
  0.3402497945871908  0.9646076050239866  0.3562681637125720
  0.3468794822151129  0.0383718911236258  0.6416458680157379
  0.2020213560795648  0.7975360255844665  0.7963163354106608
  0.6972012314016443  0.6988828898268814  0.6973842535606810
  0.6932702282083049  0.3090583276424960  0.3088383987304339
  0.2444444809186576  0.5028564654058392 -0.0014849198490571
  0.7449268604831766  0.5035239605980536  0.0024649442104277
 -0.0088267611936525  0.2521657360419825  0.5005746609498885
 -0.0044578504743720  0.7511405999448929  0.5060533574081335
  0.4947881957502075  0.0022989061054962  0.2517311807241669
  0.4953914392433509 -0.0014562807545129  0.7513596907358626
  0.2448902535263697 -0.0019986937060059  0.5031680016029811
  0.7453952544111156  0.0029310748665228  0.5025982469559263
  0.4956818070852417  0.2516778908696528  0.0042326766152951
  0.4953155154847237  0.7511635314188438 -0.0035560115836717
 -0.0090827554265368  0.4987175082458542  0.2519328203140331
 -0.0034558470744402  0.5073148236404065  0.7513957379014264
  0.0330169013863115 -0.0367785489736559 -0.0368602231680704
  0.5640989548622660  0.5039303820473032  0.5037552597221140
  0.1692033945399119  0.1719330934851431  0.1731679220896855
  0.8250045642432751  0.8285885395875993  0.1738415156991306
  0.8255415274818709  0.1749647750821137  0.8293842865799490
  0.3313206144282093  0.3319339655917920  0.6688966816697618
  0.3305150883861457  0.6675093100755954  0.3313904192577476
 
  0.00000000E+00  0.00000000E+00  0.00000000E+00
  0.00000000E+00  0.00000000E+00  0.00000000E+00
  0.00000000E+00  0.00000000E+00  0.00000000E+00
  0.00000000E+00  0.00000000E+00  0.00000000E+00
  0.00000000E+00  0.00000000E+00  0.00000000E+00
  0.00000000E+00  0.00000000E+00  0.00000000E+00
  0.00000000E+00  0.00000000E+00  0.00000000E+00
  0.00000000E+00  0.00000000E+00  0.00000000E+00
  0.00000000E+00  0.00000000E+00  0.00000000E+00
  0.00000000E+00  0.00000000E+00  0.00000000E+00
  0.00000000E+00  0.00000000E+00  0.00000000E+00
  0.00000000E+00  0.00000000E+00  0.00000000E+00
  0.00000000E+00  0.00000000E+00  0.00000000E+00
  0.00000000E+00  0.00000000E+00  0.00000000E+00
  0.00000000E+00  0.00000000E+00  0.00000000E+00
  0.00000000E+00  0.00000000E+00  0.00000000E+00
  0.00000000E+00  0.00000000E+00  0.00000000E+00
  0.00000000E+00  0.00000000E+00  0.00000000E+00
  0.00000000E+00  0.00000000E+00  0.00000000E+00
  0.00000000E+00  0.00000000E+00  0.00000000E+00
  0.00000000E+00  0.00000000E+00  0.00000000E+00
  0.00000000E+00  0.00000000E+00  0.00000000E+00
  0.00000000E+00  0.00000000E+00  0.00000000E+00
  0.00000000E+00  0.00000000E+00  0.00000000E+00
  0.00000000E+00  0.00000000E+00  0.00000000E+00
  0.00000000E+00  0.00000000E+00  0.00000000E+00
  0.00000000E+00  0.00000000E+00  0.00000000E+00
  0.00000000E+00  0.00000000E+00  0.00000000E+00
  0.00000000E+00  0.00000000E+00  0.00000000E+00
  0.00000000E+00  0.00000000E+00  0.00000000E+00
  0.00000000E+00  0.00000000E+00  0.00000000E+00
  0.00000000E+00  0.00000000E+00  0.00000000E+00
  0.00000000E+00  0.00000000E+00  0.00000000E+00
  0.00000000E+00  0.00000000E+00  0.00000000E+00
  0.00000000E+00  0.00000000E+00  0.00000000E+00
  0.00000000E+00  0.00000000E+00  0.00000000E+00
  0.00000000E+00  0.00000000E+00  0.00000000E+00
  0.00000000E+00  0.00000000E+00  0.00000000E+00
  0.00000000E+00  0.00000000E+00  0.00000000E+00
  0.00000000E+00  0.00000000E+00  0.00000000E+00
  0.00000000E+00  0.00000000E+00  0.00000000E+00
  0.00000000E+00  0.00000000E+00  0.00000000E+00
  0.00000000E+00  0.00000000E+00  0.00000000E+00
  0.00000000E+00  0.00000000E+00  0.00000000E+00
  0.00000000E+00  0.00000000E+00  0.00000000E+00
  0.00000000E+00  0.00000000E+00  0.00000000E+00
