Sodilite                                
   1.00000000000000     
     8.9801478147383449    0.0155939364042404   -0.0155939378296662
     0.0155939378296662    8.9801478147383449   -0.0155939364042404
    -0.0155939364042404   -0.0155939378296662    8.9801478147383449
   O    Na   Al   Si   Cl   K 
    24     7     6     6     2     1
Direct
  0.1386352073053825  0.4362919616448323  0.1520101428169786
  0.8611152139527510  0.5633532437472579  0.1500452260567172
  0.8582791855890166  0.4374516478725635  0.8524809507356019
  0.1387937542749316  0.5595756264351769  0.8510090437643294
  0.1489909562356705  0.1387937542749316  0.4404243735648230
  0.1475190492643982  0.8582791855890166  0.5625483521274360
  0.8499547739432827  0.8611152139527510  0.4366467562527424
  0.8479898571830217  0.1386352073053825  0.5637080383551677
  0.4374516478725635  0.1475190492643982  0.1417208144109835
  0.5595756264351769  0.1489909562356705  0.8612062457250685
  0.4362919616448323  0.8479898571830217  0.8613647926946180
  0.5633532437472579  0.8499547739432827  0.1388847860472492
  0.9349597734472810  0.6443755345875729  0.6561982310273073
  0.0527196953704943  0.3642941876425215  0.6459838336440958
  0.9355844759296905  0.3547394071136448  0.3465595346154035
  0.0606002786494928  0.6331070773607237  0.3569753902335038
  0.6331070773607237  0.6430246097664962  0.9393997213505071
  0.3547394071136448  0.6534404653845970  0.0644155240703095
  0.3642941876425215  0.3540161663559040  0.9472803046295057
  0.6443755345875729  0.3438017689726923  0.0650402265527193
  0.6534404653845970  0.9355844759296905  0.6452605928863553
  0.6430246097664962  0.0606002786494928  0.3668929226392768
  0.3438017689726923  0.9349597734472810  0.3556244654124274
  0.3540161663559040  0.0527196953704943  0.6357058123574787
  0.1775376530121673  0.1763821315344299  0.1792498098902313
  0.8192387032959979  0.8192387032959979  0.1807612967040022
  0.8207501901097682  0.1775376530121673  0.8236178684655697
  0.1763821315344299  0.8207501901097682  0.8224623469878325
  0.6823584702996375  0.6829108703747171  0.6852144040103396
  0.6829108703747171  0.3147855959896599  0.3176415297003628
  0.3147855959896599  0.6823584702996375  0.3170891296252824
  0.2480426683737991  0.5003030618276597  0.0034730345672176
  0.7484644280007664  0.4974204694362500  0.0033190753970116
 -0.0034730345672176  0.2480426683737991  0.4996969381723405
 -0.0033190753970116  0.7484644280007664  0.5025795305637500
  0.4974204694362500 -0.0033190753970116  0.2515355719992337
  0.5003030618276597 -0.0034730345672176  0.7519573316262012
  0.2481195383430127 -0.0039090614227314  0.4990649594123522
  0.7483416747408571 -0.0019563704693545  0.5029086528961608
  0.5009350405876478  0.2481195383430127  0.0039090614227314
  0.4970913471038393  0.7483416747408571  0.0019563704693545
 -0.0019563704693545  0.4970913471038393  0.2516583252591431
 -0.0039090614227314  0.5009350405876478  0.7518804616569872
 -0.0020582624717648 -0.0020582624717648  0.0020582624717648
  0.5401296279824418  0.5401296279824418  0.4598703720175579
  0.3492904152860330  0.3492904152860330  0.6507095847139676
 
  0.00000000E+00  0.00000000E+00  0.00000000E+00
  0.00000000E+00  0.00000000E+00  0.00000000E+00
  0.00000000E+00  0.00000000E+00  0.00000000E+00
  0.00000000E+00  0.00000000E+00  0.00000000E+00
  0.00000000E+00  0.00000000E+00  0.00000000E+00
  0.00000000E+00  0.00000000E+00  0.00000000E+00
  0.00000000E+00  0.00000000E+00  0.00000000E+00
  0.00000000E+00  0.00000000E+00  0.00000000E+00
  0.00000000E+00  0.00000000E+00  0.00000000E+00
  0.00000000E+00  0.00000000E+00  0.00000000E+00
  0.00000000E+00  0.00000000E+00  0.00000000E+00
  0.00000000E+00  0.00000000E+00  0.00000000E+00
  0.00000000E+00  0.00000000E+00  0.00000000E+00
  0.00000000E+00  0.00000000E+00  0.00000000E+00
  0.00000000E+00  0.00000000E+00  0.00000000E+00
  0.00000000E+00  0.00000000E+00  0.00000000E+00
  0.00000000E+00  0.00000000E+00  0.00000000E+00
  0.00000000E+00  0.00000000E+00  0.00000000E+00
  0.00000000E+00  0.00000000E+00  0.00000000E+00
  0.00000000E+00  0.00000000E+00  0.00000000E+00
  0.00000000E+00  0.00000000E+00  0.00000000E+00
  0.00000000E+00  0.00000000E+00  0.00000000E+00
  0.00000000E+00  0.00000000E+00  0.00000000E+00
  0.00000000E+00  0.00000000E+00  0.00000000E+00
  0.00000000E+00  0.00000000E+00  0.00000000E+00
  0.00000000E+00  0.00000000E+00  0.00000000E+00
  0.00000000E+00  0.00000000E+00  0.00000000E+00
  0.00000000E+00  0.00000000E+00  0.00000000E+00
  0.00000000E+00  0.00000000E+00  0.00000000E+00
  0.00000000E+00  0.00000000E+00  0.00000000E+00
  0.00000000E+00  0.00000000E+00  0.00000000E+00
  0.00000000E+00  0.00000000E+00  0.00000000E+00
  0.00000000E+00  0.00000000E+00  0.00000000E+00
  0.00000000E+00  0.00000000E+00  0.00000000E+00
  0.00000000E+00  0.00000000E+00  0.00000000E+00
  0.00000000E+00  0.00000000E+00  0.00000000E+00
  0.00000000E+00  0.00000000E+00  0.00000000E+00
  0.00000000E+00  0.00000000E+00  0.00000000E+00
  0.00000000E+00  0.00000000E+00  0.00000000E+00
  0.00000000E+00  0.00000000E+00  0.00000000E+00
  0.00000000E+00  0.00000000E+00  0.00000000E+00
  0.00000000E+00  0.00000000E+00  0.00000000E+00
  0.00000000E+00  0.00000000E+00  0.00000000E+00
  0.00000000E+00  0.00000000E+00  0.00000000E+00
  0.00000000E+00  0.00000000E+00  0.00000000E+00
  0.00000000E+00  0.00000000E+00  0.00000000E+00
