Sodilite                                
   1.00000000000000     
     9.1511980053207758    0.0257493030013963    0.0257493030013963
     0.0257522583497421    9.1589972120687388   -0.0041951543964804
     0.0257522583497421   -0.0041951543964804    9.1589972120687388
   O    Na   Al   Si   Cl   K 
    24     4     6     6     2     4
Direct
  0.1446797726810354  0.4596773825844337  0.1567911301964017
  0.8584904550479315  0.5419480641213412  0.1525562155463880
  0.8571808927169289  0.4507803704579258  0.8479974080183010
  0.1407098839154272  0.5514933074111450  0.8525644608456170
  0.1390714765458933  0.1319403640170955  0.4611561161773093
  0.1648886487864563  0.8486399841706109  0.5519874264654224
  0.8574125667211305  0.8713565507198010  0.4647735241491513
  0.8383602878646913  0.1562571456236157  0.5546369017663842
  0.4558436105374170  0.1542167477696262  0.1425006900178959
  0.5543503274500540  0.1544596501792791  0.8606545031780894
  0.4530609709626316  0.8509170437785600  0.8577877033090120
  0.5379031244378917  0.8513580268888653  0.1457149879376180
  0.9558436105374166  0.6425006900178953  0.6542167477696260
  0.0543503274500542  0.3606545031780892  0.6544596501792787
  0.9530609709626320  0.3577877033090120  0.3509170437785595
  0.0379031244378916  0.6457149879376179  0.3513580268888655
  0.6446797726810354  0.6567911301964018  0.9596773825844335
  0.3584904550479314  0.6525562155463884  0.0419480641213408
  0.3571808927169294  0.3479974080183011  0.9507803704579258
  0.6407098839154270  0.3525644608456174  0.0514933074111452
  0.6390714765458930  0.9611561161773091  0.6319403640170953
  0.6648886487864555  0.0519874264654224  0.3486399841706107
  0.3574125667211309  0.9647735241491512  0.3713565507198009
  0.3383602878646920  0.0546369017663837  0.6562571456236159
  0.8036816815935648  0.1977319252025763  0.8042583089540861
  0.1936841114934690  0.8083710092159589  0.8083002318472345
  0.3036816815935655  0.3042583089540855  0.6977319252025762
  0.6936841114934688  0.3083002318472340  0.3083710092159590
  0.2502419990605240  0.5014959397894503  0.0016164108828997
  0.7502419990605249  0.5016164108829000  0.0014959397894504
 -0.0026008041237324  0.2528356507618371  0.5063941500558187
  0.0032854770862826  0.7542735916632292  0.5065805341652834
  0.5032854770862829  0.0065805341652835  0.2542735916632293
  0.4973991958762677  0.0063941500558187  0.7528356507618376
  0.2501301523571742  0.0014670738833349  0.5102714694402429
  0.7501301523571743  0.0102714694402432  0.5014670738833351
  0.5014916632148849  0.2528246553479199  0.0014678765972580
  0.4991879412098748  0.7537751194563246  0.0014863679105576
 -0.0008120587901250  0.5014863679105578  0.2537751194563252
  0.0014916632148848  0.5014678765972583  0.7528246553479195
 -0.0011259509181019  0.0048423105468500 -0.0724454265714148
  0.4988740490818984  0.4275545734285851  0.5048423105468500
  0.1634178890396443  0.1640122144438926  0.1666042623883364
  0.8366538223189246  0.8378411781959039  0.1638294404925322
  0.6634178890396448  0.6666042623883367  0.6640122144438929
  0.3366538223189242  0.6638294404925321  0.3378411781959038
 
  0.00000000E+00  0.00000000E+00  0.00000000E+00
  0.00000000E+00  0.00000000E+00  0.00000000E+00
  0.00000000E+00  0.00000000E+00  0.00000000E+00
  0.00000000E+00  0.00000000E+00  0.00000000E+00
  0.00000000E+00  0.00000000E+00  0.00000000E+00
  0.00000000E+00  0.00000000E+00  0.00000000E+00
  0.00000000E+00  0.00000000E+00  0.00000000E+00
  0.00000000E+00  0.00000000E+00  0.00000000E+00
  0.00000000E+00  0.00000000E+00  0.00000000E+00
  0.00000000E+00  0.00000000E+00  0.00000000E+00
  0.00000000E+00  0.00000000E+00  0.00000000E+00
  0.00000000E+00  0.00000000E+00  0.00000000E+00
  0.00000000E+00  0.00000000E+00  0.00000000E+00
  0.00000000E+00  0.00000000E+00  0.00000000E+00
  0.00000000E+00  0.00000000E+00  0.00000000E+00
  0.00000000E+00  0.00000000E+00  0.00000000E+00
  0.00000000E+00  0.00000000E+00  0.00000000E+00
  0.00000000E+00  0.00000000E+00  0.00000000E+00
  0.00000000E+00  0.00000000E+00  0.00000000E+00
  0.00000000E+00  0.00000000E+00  0.00000000E+00
  0.00000000E+00  0.00000000E+00  0.00000000E+00
  0.00000000E+00  0.00000000E+00  0.00000000E+00
  0.00000000E+00  0.00000000E+00  0.00000000E+00
  0.00000000E+00  0.00000000E+00  0.00000000E+00
  0.00000000E+00  0.00000000E+00  0.00000000E+00
  0.00000000E+00  0.00000000E+00  0.00000000E+00
  0.00000000E+00  0.00000000E+00  0.00000000E+00
  0.00000000E+00  0.00000000E+00  0.00000000E+00
  0.00000000E+00  0.00000000E+00  0.00000000E+00
  0.00000000E+00  0.00000000E+00  0.00000000E+00
  0.00000000E+00  0.00000000E+00  0.00000000E+00
  0.00000000E+00  0.00000000E+00  0.00000000E+00
  0.00000000E+00  0.00000000E+00  0.00000000E+00
  0.00000000E+00  0.00000000E+00  0.00000000E+00
  0.00000000E+00  0.00000000E+00  0.00000000E+00
  0.00000000E+00  0.00000000E+00  0.00000000E+00
  0.00000000E+00  0.00000000E+00  0.00000000E+00
  0.00000000E+00  0.00000000E+00  0.00000000E+00
  0.00000000E+00  0.00000000E+00  0.00000000E+00
  0.00000000E+00  0.00000000E+00  0.00000000E+00
  0.00000000E+00  0.00000000E+00  0.00000000E+00
  0.00000000E+00  0.00000000E+00  0.00000000E+00
  0.00000000E+00  0.00000000E+00  0.00000000E+00
  0.00000000E+00  0.00000000E+00  0.00000000E+00
  0.00000000E+00  0.00000000E+00  0.00000000E+00
  0.00000000E+00  0.00000000E+00  0.00000000E+00
