Sodilite                                
   1.00000000000000     
     9.2111931034014063   -0.0061916137329182   -0.0130137177377833
    -0.0062110600635132    9.2317054076295086    0.0057557081491400
    -0.0130164839397494    0.0057447783124441    9.2124528811919273
   O    Na   Al   Si   Cl   K 
    24     3     6     6     2     5
Direct
  0.1571740557927233  0.4540939011450477  0.1621862646740603
  0.8692274888935038  0.5287281027022487  0.1401437328572241
  0.8466893745670392  0.4530139953570545  0.8326019612739542
  0.1303267807485431  0.5353471130134480  0.8598191627014996
  0.1514293744816131  0.1398768045508643  0.4510548618911351
  0.1572026716192089  0.8553776264012859  0.5344247121104095
  0.8506526797265259  0.8571480800860891  0.4681727041969294
  0.8474609045197592  0.1450607291651307  0.5438590504922962
  0.4559455270124289  0.1549883457008454  0.1427475477616511
  0.5482344768745305  0.1486820263696816  0.8588606420509192
  0.4657307929338595  0.8453920421469441  0.8525869555187578
  0.5327163454517531  0.8475413868012939  0.1411542313664343
  0.9685820466197264  0.6347433037087812  0.6462730407081602
  0.0485780369602479  0.3487573313168695  0.6569354837227365
  0.9646039918250138  0.3617818393010615  0.3537089214673263
  0.0360882770547613  0.6477532220937648  0.3382773327921352
  0.6521277454022408  0.6568911449694035  0.9651176790709091
  0.3626779707466441  0.6448462036850174  0.0305552172943328
  0.3521392725624542  0.3389813042287914  0.9500832775016159
  0.6357463111052586  0.3531965865389575  0.0364554135013166
  0.6447343413143748  0.9652903157193857  0.6336424347643695
  0.6635629909354832  0.0363380006260542  0.3470703388577950
  0.3590703373461453  0.9655708089672868  0.3649377816737319
  0.3388991376449200  0.0457679694997777  0.6506674826246903
  0.1970920437516814  0.1991324262821042  0.1971697185224795
  0.8025628100767627  0.1980557859244911  0.8020031342470580
  0.2924769640158333  0.2922935003506051  0.7065575361215152
  0.2514492294678783  0.4931183221086331 -0.0004486484647260
  0.7522694452433086  0.4967329154867333 -0.0065093099523263
  0.0032406501180282  0.2482234102124639  0.5008857186780421
  0.0039566591387965  0.7479738804379594  0.4972348095054011
  0.5033561327959934  0.0020668909679138  0.2477263495951074
  0.4987557756363353  0.0016494907952546  0.7483550654961207
  0.2518432142930979  0.0018568360282101  0.5003432218446492
  0.7521011131741563  0.0013516316233440  0.4979034261345333
  0.4984641586434354  0.2487006858936895 -0.0033289740164629
  0.5030900511923828  0.7482995489852318 -0.0031779051086786
  0.0067089229613682  0.4972746225722714  0.2479643896322710
 -0.0005033478797461  0.4927980413602798  0.7485362664385221
  0.0020683484939382  0.0698675622568037 -0.0023141950360855
  0.4616447955772036  0.4579766624396669  0.5381323216327838
  0.8351616067827055  0.8338594905331107  0.1654947038261017
  0.1676963535626805  0.8309791935888859  0.8323147820128893
  0.6715834219817045  0.6717361129707968  0.6692554297285639
  0.6737590012076883  0.3287560757145636  0.3266359030652364
  0.3316217176260099  0.6721287293719035  0.3279300252226142
 
  0.00000000E+00  0.00000000E+00  0.00000000E+00
  0.00000000E+00  0.00000000E+00  0.00000000E+00
  0.00000000E+00  0.00000000E+00  0.00000000E+00
  0.00000000E+00  0.00000000E+00  0.00000000E+00
  0.00000000E+00  0.00000000E+00  0.00000000E+00
  0.00000000E+00  0.00000000E+00  0.00000000E+00
  0.00000000E+00  0.00000000E+00  0.00000000E+00
  0.00000000E+00  0.00000000E+00  0.00000000E+00
  0.00000000E+00  0.00000000E+00  0.00000000E+00
  0.00000000E+00  0.00000000E+00  0.00000000E+00
  0.00000000E+00  0.00000000E+00  0.00000000E+00
  0.00000000E+00  0.00000000E+00  0.00000000E+00
  0.00000000E+00  0.00000000E+00  0.00000000E+00
  0.00000000E+00  0.00000000E+00  0.00000000E+00
  0.00000000E+00  0.00000000E+00  0.00000000E+00
  0.00000000E+00  0.00000000E+00  0.00000000E+00
  0.00000000E+00  0.00000000E+00  0.00000000E+00
  0.00000000E+00  0.00000000E+00  0.00000000E+00
  0.00000000E+00  0.00000000E+00  0.00000000E+00
  0.00000000E+00  0.00000000E+00  0.00000000E+00
  0.00000000E+00  0.00000000E+00  0.00000000E+00
  0.00000000E+00  0.00000000E+00  0.00000000E+00
  0.00000000E+00  0.00000000E+00  0.00000000E+00
  0.00000000E+00  0.00000000E+00  0.00000000E+00
  0.00000000E+00  0.00000000E+00  0.00000000E+00
  0.00000000E+00  0.00000000E+00  0.00000000E+00
  0.00000000E+00  0.00000000E+00  0.00000000E+00
  0.00000000E+00  0.00000000E+00  0.00000000E+00
  0.00000000E+00  0.00000000E+00  0.00000000E+00
  0.00000000E+00  0.00000000E+00  0.00000000E+00
  0.00000000E+00  0.00000000E+00  0.00000000E+00
  0.00000000E+00  0.00000000E+00  0.00000000E+00
  0.00000000E+00  0.00000000E+00  0.00000000E+00
  0.00000000E+00  0.00000000E+00  0.00000000E+00
  0.00000000E+00  0.00000000E+00  0.00000000E+00
  0.00000000E+00  0.00000000E+00  0.00000000E+00
  0.00000000E+00  0.00000000E+00  0.00000000E+00
  0.00000000E+00  0.00000000E+00  0.00000000E+00
  0.00000000E+00  0.00000000E+00  0.00000000E+00
  0.00000000E+00  0.00000000E+00  0.00000000E+00
  0.00000000E+00  0.00000000E+00  0.00000000E+00
  0.00000000E+00  0.00000000E+00  0.00000000E+00
  0.00000000E+00  0.00000000E+00  0.00000000E+00
  0.00000000E+00  0.00000000E+00  0.00000000E+00
  0.00000000E+00  0.00000000E+00  0.00000000E+00
  0.00000000E+00  0.00000000E+00  0.00000000E+00
