Sodilite                                
   1.00000000000000     
     9.2274312605603477   -0.0353257438629224    0.0144320121761142
    -0.0353106062170860    9.2278527860931607    0.0129443120934017
     0.0144234221210917    0.0129367762823659    9.2275116724810129
   O    Na   Al   Si   Cl   K 
    24     3     6     6     2     5
Direct
  0.1462780636978278  0.4568041661887605  0.1506947582892650
  0.8587489312482268  0.5398499960765866  0.1480425987539361
  0.8562700580791075  0.4646253532304840  0.8402360439385402
  0.1416694222574615  0.5383115241763411  0.8468731126615449
  0.1619403644400261  0.1528145978975331  0.4496411327013765
  0.1464084309119030  0.8677957692371234  0.5318441348745775
  0.8395454991250452  0.8479898144100054  0.4555918912901872
  0.8580370557341878  0.1354845086421433  0.5307228683035928
  0.4548974067527621  0.1574350762559236  0.1421066067502919
  0.5376729240629518  0.1498529340265018  0.8571696770942705
  0.4665092834239010  0.8474642769372033  0.8512939580470265
  0.5407009786102606  0.8495435174413563  0.1397254746075068
  0.9700302642452316  0.6379110721720687  0.6412503810435718
  0.0439036953094741  0.3492899099291516  0.6557385386045188
  0.9634487019349988  0.3658364873325211  0.3510074261075980
  0.0395132402443137  0.6506251295732514  0.3358505459554453
  0.6504279625286177  0.6586346884225057  0.9624667517297653
  0.3627273407630928  0.6493102146693380  0.0323112426731849
  0.3513804413176151  0.3430906343595168  0.9518649498012201
  0.6378262671673802  0.3528371021677481  0.0318694443040763
  0.6485048969230723  0.9682583640745810  0.6327009384525349
  0.6598292753759534  0.0383237574257652  0.3454110541286310
  0.3576193709629617  0.9648022913661384  0.3620591369681635
  0.3395878275618237  0.0452856499672645  0.6471199609416651
  0.1973291327843052  0.1988261015419165  0.1971678873534801
  0.8088032099549770  0.8090206234193956  0.1932767224881167
  0.2963475302230640  0.2975689870864393  0.7020138858420500
  0.2513469204802516  0.4985591238808628 -0.0045811034013547
  0.7517535602802097  0.5022683835269822 -0.0052027104398857
  0.0060227038631051  0.2511431465151843  0.4955349701845944
  0.0005927913639778  0.7521581196779306  0.4911886368596705
  0.5024481259080780  0.0035290708274492  0.2449417413344122
  0.4985242380573523  0.0028460019298161  0.7444732822071665
  0.2513867343768938  0.0073163843099108  0.4965261788828736
  0.7519227436696327 -0.0012625047725450  0.4909253654361543
  0.4964411954005784  0.2511625696781003 -0.0046772841826796
  0.5042028162073905  0.7516801183387803 -0.0042974817438419
  0.0026010363987036  0.5028988736471137  0.2453997079878173
  0.0031893245492357  0.4979935235101265  0.7449046124975319
  0.0037367377412924  0.0039076996130516  0.0640927608034567
  0.4631566822857717  0.4632398499163592  0.5330464495389077
  0.8313838441520242  0.1675291597933055  0.8305205874083772
  0.1689036576212584  0.8319172310669135  0.8313182202308314
  0.6732125311699821  0.6719865186263425  0.6692449159093858
  0.6738679789598327  0.3285660740073708  0.3250293248921308
  0.3293488018738877  0.6749681078793787  0.3255607018883124
 
  0.00000000E+00  0.00000000E+00  0.00000000E+00
  0.00000000E+00  0.00000000E+00  0.00000000E+00
  0.00000000E+00  0.00000000E+00  0.00000000E+00
  0.00000000E+00  0.00000000E+00  0.00000000E+00
  0.00000000E+00  0.00000000E+00  0.00000000E+00
  0.00000000E+00  0.00000000E+00  0.00000000E+00
  0.00000000E+00  0.00000000E+00  0.00000000E+00
  0.00000000E+00  0.00000000E+00  0.00000000E+00
  0.00000000E+00  0.00000000E+00  0.00000000E+00
  0.00000000E+00  0.00000000E+00  0.00000000E+00
  0.00000000E+00  0.00000000E+00  0.00000000E+00
  0.00000000E+00  0.00000000E+00  0.00000000E+00
  0.00000000E+00  0.00000000E+00  0.00000000E+00
  0.00000000E+00  0.00000000E+00  0.00000000E+00
  0.00000000E+00  0.00000000E+00  0.00000000E+00
  0.00000000E+00  0.00000000E+00  0.00000000E+00
  0.00000000E+00  0.00000000E+00  0.00000000E+00
  0.00000000E+00  0.00000000E+00  0.00000000E+00
  0.00000000E+00  0.00000000E+00  0.00000000E+00
  0.00000000E+00  0.00000000E+00  0.00000000E+00
  0.00000000E+00  0.00000000E+00  0.00000000E+00
  0.00000000E+00  0.00000000E+00  0.00000000E+00
  0.00000000E+00  0.00000000E+00  0.00000000E+00
  0.00000000E+00  0.00000000E+00  0.00000000E+00
  0.00000000E+00  0.00000000E+00  0.00000000E+00
  0.00000000E+00  0.00000000E+00  0.00000000E+00
  0.00000000E+00  0.00000000E+00  0.00000000E+00
  0.00000000E+00  0.00000000E+00  0.00000000E+00
  0.00000000E+00  0.00000000E+00  0.00000000E+00
  0.00000000E+00  0.00000000E+00  0.00000000E+00
  0.00000000E+00  0.00000000E+00  0.00000000E+00
  0.00000000E+00  0.00000000E+00  0.00000000E+00
  0.00000000E+00  0.00000000E+00  0.00000000E+00
  0.00000000E+00  0.00000000E+00  0.00000000E+00
  0.00000000E+00  0.00000000E+00  0.00000000E+00
  0.00000000E+00  0.00000000E+00  0.00000000E+00
  0.00000000E+00  0.00000000E+00  0.00000000E+00
  0.00000000E+00  0.00000000E+00  0.00000000E+00
  0.00000000E+00  0.00000000E+00  0.00000000E+00
  0.00000000E+00  0.00000000E+00  0.00000000E+00
  0.00000000E+00  0.00000000E+00  0.00000000E+00
  0.00000000E+00  0.00000000E+00  0.00000000E+00
  0.00000000E+00  0.00000000E+00  0.00000000E+00
  0.00000000E+00  0.00000000E+00  0.00000000E+00
  0.00000000E+00  0.00000000E+00  0.00000000E+00
  0.00000000E+00  0.00000000E+00  0.00000000E+00
