Sodilite                                
   1.00000000000000     
     9.1607803961175449    0.0046824456389757    0.0254151135896755
     0.0046824456389757    9.1607803961175449   -0.0254151135896755
     0.0254124221179482   -0.0254124221179482    9.1522725500185977
   O    Na   Al   Si   Cl   K 
    24     4     6     6     2     4
Direct
  0.1286729758592182  0.4650355995738525  0.1426007164595126
  0.8437347427507885  0.5546873418739973  0.1616311589319600
  0.8678915162648331  0.4612750764865607  0.8608865545976396
  0.1512326256699346  0.5518747738728326  0.8351017690782068
  0.1486260939736221  0.1457311900033243  0.4624042671539306
  0.1491177266843440  0.8577576249814491  0.5469620636965450
  0.8455523976537890  0.8606520919413124  0.4456751708936529
  0.8457129884912132  0.1425601285326300  0.5437837191376154
  0.4584003238710577  0.1523173506507451  0.1413064631857225
  0.5402189993413328  0.1570931241390673  0.8550456519881849
  0.4487508974573929  0.8528338253001660  0.8595128356552901
  0.5492238245263602  0.8476808963170995  0.1430611946500795
  0.9453126581260027  0.6562652572492115  0.6616311589319593
  0.0349644004261475  0.3713270241407818  0.6426007164595121
  0.9481252261271674  0.3487673743300654  0.3351017690782069
  0.0387249235134394  0.6321084837351669  0.3608865545976397
  0.6393479080586877  0.6544476023462110  0.9456751708936529
  0.3574398714673697  0.6542870115087868  0.0437837191376158
  0.3542688099966756  0.3513739060263779  0.9624042671539298
  0.6422423750185510  0.3508822733156562  0.0469620636965448
  0.6523191036829005  0.9507761754736398  0.6430611946500795
  0.6471661746998340  0.0512491025426068  0.3595128356552902
  0.3429068758609325  0.9597810006586672  0.3550456519881852
  0.3476826493492546  0.0415996761289424  0.6413064631857230
  0.8025729560761814  0.8043456693035709  0.1961666188366257
  0.1920281378671984  0.8082555781641120  0.8063473743985243
  0.6956543306964291  0.6974270439238186  0.6961666188366256
  0.6917444218358880  0.3079718621328018  0.3063473743985237
  0.2456786259757523  0.5066449188761883 -0.0033231283466492
  0.7471054887531182  0.5063964567900555  0.0026665405601256
 -0.0066449188761884  0.2543213740242477  0.4966768716533509
 -0.0063964567900556  0.7528945112468818  0.5026665405601258
  0.4983521842357769  0.0013297096169839  0.2497519124566891
  0.4986702903830164  0.0016478157642231  0.7497519124566893
  0.2462253385209975  0.0014287934660002  0.5007588980673818
  0.7471620045253646  0.0013957319796983  0.4985621116780047
  0.4985712065339997  0.2537746614790025  0.0007588980673822
  0.4986042680203022  0.7528379954746354 -0.0014378883219954
 -0.0102674652495802  0.5016115791657699  0.2498692321515392
 -0.0016115791657699  0.5102674652495802  0.7498692321515392
 -0.0041581826634262 -0.0717364810197142  0.0011909380392171
  0.5717364810197141  0.5041581826634260  0.5011909380392170
  0.1626410411326174  0.1644454924138218  0.1637198081186001
  0.8359289415912223  0.1667877108795865  0.8363181286116023
  0.3355545075861783  0.3373589588673827  0.6637198081186001
  0.3332122891204134  0.6640710584087777  0.3363181286116024
 
  0.00000000E+00  0.00000000E+00  0.00000000E+00
  0.00000000E+00  0.00000000E+00  0.00000000E+00
  0.00000000E+00  0.00000000E+00  0.00000000E+00
  0.00000000E+00  0.00000000E+00  0.00000000E+00
  0.00000000E+00  0.00000000E+00  0.00000000E+00
  0.00000000E+00  0.00000000E+00  0.00000000E+00
  0.00000000E+00  0.00000000E+00  0.00000000E+00
  0.00000000E+00  0.00000000E+00  0.00000000E+00
  0.00000000E+00  0.00000000E+00  0.00000000E+00
  0.00000000E+00  0.00000000E+00  0.00000000E+00
  0.00000000E+00  0.00000000E+00  0.00000000E+00
  0.00000000E+00  0.00000000E+00  0.00000000E+00
  0.00000000E+00  0.00000000E+00  0.00000000E+00
  0.00000000E+00  0.00000000E+00  0.00000000E+00
  0.00000000E+00  0.00000000E+00  0.00000000E+00
  0.00000000E+00  0.00000000E+00  0.00000000E+00
  0.00000000E+00  0.00000000E+00  0.00000000E+00
  0.00000000E+00  0.00000000E+00  0.00000000E+00
  0.00000000E+00  0.00000000E+00  0.00000000E+00
  0.00000000E+00  0.00000000E+00  0.00000000E+00
  0.00000000E+00  0.00000000E+00  0.00000000E+00
  0.00000000E+00  0.00000000E+00  0.00000000E+00
  0.00000000E+00  0.00000000E+00  0.00000000E+00
  0.00000000E+00  0.00000000E+00  0.00000000E+00
  0.00000000E+00  0.00000000E+00  0.00000000E+00
  0.00000000E+00  0.00000000E+00  0.00000000E+00
  0.00000000E+00  0.00000000E+00  0.00000000E+00
  0.00000000E+00  0.00000000E+00  0.00000000E+00
  0.00000000E+00  0.00000000E+00  0.00000000E+00
  0.00000000E+00  0.00000000E+00  0.00000000E+00
  0.00000000E+00  0.00000000E+00  0.00000000E+00
  0.00000000E+00  0.00000000E+00  0.00000000E+00
  0.00000000E+00  0.00000000E+00  0.00000000E+00
  0.00000000E+00  0.00000000E+00  0.00000000E+00
  0.00000000E+00  0.00000000E+00  0.00000000E+00
  0.00000000E+00  0.00000000E+00  0.00000000E+00
  0.00000000E+00  0.00000000E+00  0.00000000E+00
  0.00000000E+00  0.00000000E+00  0.00000000E+00
  0.00000000E+00  0.00000000E+00  0.00000000E+00
  0.00000000E+00  0.00000000E+00  0.00000000E+00
  0.00000000E+00  0.00000000E+00  0.00000000E+00
  0.00000000E+00  0.00000000E+00  0.00000000E+00
  0.00000000E+00  0.00000000E+00  0.00000000E+00
  0.00000000E+00  0.00000000E+00  0.00000000E+00
  0.00000000E+00  0.00000000E+00  0.00000000E+00
  0.00000000E+00  0.00000000E+00  0.00000000E+00
