Sodilite                                
   1.00000000000000     
     9.0999030374019352   -0.0445988605712831   -0.0111212820897287
    -0.0445886977965181    9.0978284991204408    0.0116662597640418
    -0.0111375382425931    0.0116780930085380    9.1012825474365897
   O    Na   Al   Si   Cl   K 
    24     5     6     6     2     3
Direct
  0.1424532165003714  0.4450142856787317  0.1459644261863033
  0.8597274824516761  0.5518679796828585  0.1485851610808135
  0.8596680068745225  0.4522116854622566  0.8442353449336385
  0.1429943142137052  0.5479469577151795  0.8449257973146279
  0.1659257492509476  0.1527751816897692  0.4405690151024907
  0.1395862319597325  0.8711911080133663  0.5425257011472107
  0.8386585012645194  0.8433846698211414  0.4420444520822959
  0.8612059193118035  0.1283157600253499  0.5385118978993045
  0.4476856125912745  0.1510124362590652  0.1394456040828204
  0.5461875735084234  0.1481228932027968  0.8548827088441430
  0.4521775966611490  0.8474692624412782  0.8566244334904540
  0.5566975066478203  0.8472050210353822  0.1382493052739717
  0.9512119848430928  0.6368182730304178  0.6423354702144046
  0.0527570598025473  0.3512179551320002  0.6519023451410302
  0.9532860803779105  0.3641213943945731  0.3503188330778362
  0.0595595119131313  0.6445812815003861  0.3398641553197035
  0.6469836500177187  0.6537524089502532  0.9430267289564908
  0.3644873923378000  0.6463008782074899  0.0517348238336366
  0.3542595848717384  0.3434359628836979  0.9424147520293989
  0.6381131571853899  0.3509639666379975  0.0424587418146853
  0.6593309387087972  0.9453247394197821  0.6441490394731012
  0.6456870279266662  0.0453090190337391  0.3612988647699525
  0.3466738667787153  0.9425565960274684  0.3512916666686951
  0.3529156222265692  0.0499743829762569  0.6336715390192326
  0.1946717438985463  0.1940500760721197  0.1894690032331418
  0.8072781193461581  0.8050682590086976  0.1906791995101827
  0.6863271886362415  0.6855115397770714  0.6837097426844377
  0.3128230754086856  0.3150889234899603  0.6834263812082356
  0.3123095073275364  0.6892291069536696  0.3101732982580210
  0.2521013244862713  0.4975479662227523 -0.0049127918321960
  0.7517496303266317  0.5005260869000252 -0.0050931248013818
  0.0068286745507215  0.2478915281003752  0.4935808885868185
 -0.0002737135021894  0.7483750623182581  0.4908150204792890
  0.4996609552599267 -0.0031560331663875  0.2454044749322849
  0.5022361564137492 -0.0035059607891450  0.7442853726204762
  0.2515396449056811  0.0025657416033176  0.4912097307071528
  0.7517922494433761 -0.0085920419043769  0.4950873464592817
  0.4975851653967167  0.2481863345411093 -0.0054505411324019
  0.5042506195023390  0.7482317837707058 -0.0035488407166004
  0.0037798564462938  0.5009673992748143  0.2453863289167786
  0.0023905982852145  0.4972502647745426  0.7445358151761374
  0.0015069844620482 -0.0013217206496720  0.0760656221000078
  0.4648555074222884  0.5355014808487152  0.5298918941890196
  0.8401509861256083  0.1583713981576642  0.8370151673117707
  0.1606090602743978  0.8398653381107035  0.8359059472593950
  0.6575930773577350  0.3414733673638434  0.3413332570939066
 
  0.00000000E+00  0.00000000E+00  0.00000000E+00
  0.00000000E+00  0.00000000E+00  0.00000000E+00
  0.00000000E+00  0.00000000E+00  0.00000000E+00
  0.00000000E+00  0.00000000E+00  0.00000000E+00
  0.00000000E+00  0.00000000E+00  0.00000000E+00
  0.00000000E+00  0.00000000E+00  0.00000000E+00
  0.00000000E+00  0.00000000E+00  0.00000000E+00
  0.00000000E+00  0.00000000E+00  0.00000000E+00
  0.00000000E+00  0.00000000E+00  0.00000000E+00
  0.00000000E+00  0.00000000E+00  0.00000000E+00
  0.00000000E+00  0.00000000E+00  0.00000000E+00
  0.00000000E+00  0.00000000E+00  0.00000000E+00
  0.00000000E+00  0.00000000E+00  0.00000000E+00
  0.00000000E+00  0.00000000E+00  0.00000000E+00
  0.00000000E+00  0.00000000E+00  0.00000000E+00
  0.00000000E+00  0.00000000E+00  0.00000000E+00
  0.00000000E+00  0.00000000E+00  0.00000000E+00
  0.00000000E+00  0.00000000E+00  0.00000000E+00
  0.00000000E+00  0.00000000E+00  0.00000000E+00
  0.00000000E+00  0.00000000E+00  0.00000000E+00
  0.00000000E+00  0.00000000E+00  0.00000000E+00
  0.00000000E+00  0.00000000E+00  0.00000000E+00
  0.00000000E+00  0.00000000E+00  0.00000000E+00
  0.00000000E+00  0.00000000E+00  0.00000000E+00
  0.00000000E+00  0.00000000E+00  0.00000000E+00
  0.00000000E+00  0.00000000E+00  0.00000000E+00
  0.00000000E+00  0.00000000E+00  0.00000000E+00
  0.00000000E+00  0.00000000E+00  0.00000000E+00
  0.00000000E+00  0.00000000E+00  0.00000000E+00
  0.00000000E+00  0.00000000E+00  0.00000000E+00
  0.00000000E+00  0.00000000E+00  0.00000000E+00
  0.00000000E+00  0.00000000E+00  0.00000000E+00
  0.00000000E+00  0.00000000E+00  0.00000000E+00
  0.00000000E+00  0.00000000E+00  0.00000000E+00
  0.00000000E+00  0.00000000E+00  0.00000000E+00
  0.00000000E+00  0.00000000E+00  0.00000000E+00
  0.00000000E+00  0.00000000E+00  0.00000000E+00
  0.00000000E+00  0.00000000E+00  0.00000000E+00
  0.00000000E+00  0.00000000E+00  0.00000000E+00
  0.00000000E+00  0.00000000E+00  0.00000000E+00
  0.00000000E+00  0.00000000E+00  0.00000000E+00
  0.00000000E+00  0.00000000E+00  0.00000000E+00
  0.00000000E+00  0.00000000E+00  0.00000000E+00
  0.00000000E+00  0.00000000E+00  0.00000000E+00
  0.00000000E+00  0.00000000E+00  0.00000000E+00
  0.00000000E+00  0.00000000E+00  0.00000000E+00
