Sodilite                                
   1.00000000000000     
     9.0385980732564963    0.0321335818660460   -0.0002470548437812
     0.0321335818660461    9.0385980732564963    0.0002470548437812
    -0.0002446534017913    0.0002446534017913    9.0332097952900998
   O    Na   Al   Si   Cl   K 
    24     6     6     6     2     2
Direct
  0.1451301544818180  0.4378072492890321  0.1573002085380589
  0.8647096610544549  0.5498446478533966  0.1485446738576738
  0.8546249813682508  0.4421969418774260  0.8462079206921838
  0.1360240622095237  0.5570759971604855  0.8580126033169542
  0.1445748091445313  0.1336701986049493  0.4415605509402714
  0.1562486515591571  0.8551160044076352  0.5618422724482468
  0.8537543497554709  0.8641515225210551  0.4541467560441690
  0.8454669963723246  0.1474250000510847  0.5610978602497976
  0.4383982085731965  0.1549879813183839  0.1456990550481136
  0.5583918756150911  0.1459745611075257  0.8669576577729785
  0.4415238278747549  0.8437428093858913  0.8554129299041009
  0.5484340039738492  0.8556806499842685  0.1384487224274374
  0.9501553521466034  0.6352903389455451  0.6485446738576744
  0.0621927507109680  0.3548698455181818  0.6573002085380590
  0.9429240028395144  0.3639759377904762  0.3580126033169541
  0.0578030581225741  0.6453750186317492  0.3462079206921835
  0.6358484774789449  0.6462456502445291  0.9541467560441692
  0.3525749999489152  0.6545330036276754  0.0610978602497976
  0.3663298013950506  0.3554251908554687  0.9415605509402715
  0.6448839955923648  0.3437513484408426  0.0618422724482468
  0.6443193500157315  0.9515659960261508  0.6384487224274371
  0.6562571906141087  0.0584761721252453  0.3554129299041006
  0.3540254388924743  0.9416081243849089  0.3669576577729791
  0.3450120186816161  0.0616017914268036  0.6456990550481138
  0.1872281878209491  0.1866910716430365  0.1887569990192633
  0.8161787186515745  0.1854505206599473  0.8165706248155385
  0.1849580348983073  0.8149190270408768  0.8174062169534713
  0.3133089283569635  0.3127718121790510  0.6887569990192632
  0.6850809729591232  0.3150419651016925  0.3174062169534708
  0.3145494793400529  0.6838212813484255  0.3165706248155386
  0.2500837412169346  0.4992348460250728  0.0053054944672689
  0.7499230425347785  0.4961000588504875  0.0027847929819108
  0.0007651539749271  0.2499162587830652  0.5053054944672687
  0.0038999411495125  0.7500769574652215  0.5027847929819105
  0.4990477001770164  0.0036677078487729  0.2534489490126309
  0.4963322921512270  0.0009522998229834  0.7534489490126308
  0.2499716233499775 -0.0008983037402278  0.5046052018341857
  0.7500044242319714  0.0050056631820549  0.5026984322196351
  0.5008983037402277  0.2500283766500225  0.0046052018341859
  0.4949943368179450  0.7499955757680286  0.0026984322196351
  0.0030657357886814  0.4989848698325824  0.2532187638020892
  0.0010151301674175  0.4969342642113185  0.7532187638020894
  0.0396356956480864  0.0393696740826569 -0.0344181052288443
  0.4606303259173430  0.4603643043519134  0.4655818947711557
  0.8459608043348509  0.8471405916491568  0.1543914188828649
  0.6528594083508432  0.6540391956651491  0.6543914188828648
 
  0.00000000E+00  0.00000000E+00  0.00000000E+00
  0.00000000E+00  0.00000000E+00  0.00000000E+00
  0.00000000E+00  0.00000000E+00  0.00000000E+00
  0.00000000E+00  0.00000000E+00  0.00000000E+00
  0.00000000E+00  0.00000000E+00  0.00000000E+00
  0.00000000E+00  0.00000000E+00  0.00000000E+00
  0.00000000E+00  0.00000000E+00  0.00000000E+00
  0.00000000E+00  0.00000000E+00  0.00000000E+00
  0.00000000E+00  0.00000000E+00  0.00000000E+00
  0.00000000E+00  0.00000000E+00  0.00000000E+00
  0.00000000E+00  0.00000000E+00  0.00000000E+00
  0.00000000E+00  0.00000000E+00  0.00000000E+00
  0.00000000E+00  0.00000000E+00  0.00000000E+00
  0.00000000E+00  0.00000000E+00  0.00000000E+00
  0.00000000E+00  0.00000000E+00  0.00000000E+00
  0.00000000E+00  0.00000000E+00  0.00000000E+00
  0.00000000E+00  0.00000000E+00  0.00000000E+00
  0.00000000E+00  0.00000000E+00  0.00000000E+00
  0.00000000E+00  0.00000000E+00  0.00000000E+00
  0.00000000E+00  0.00000000E+00  0.00000000E+00
  0.00000000E+00  0.00000000E+00  0.00000000E+00
  0.00000000E+00  0.00000000E+00  0.00000000E+00
  0.00000000E+00  0.00000000E+00  0.00000000E+00
  0.00000000E+00  0.00000000E+00  0.00000000E+00
  0.00000000E+00  0.00000000E+00  0.00000000E+00
  0.00000000E+00  0.00000000E+00  0.00000000E+00
  0.00000000E+00  0.00000000E+00  0.00000000E+00
  0.00000000E+00  0.00000000E+00  0.00000000E+00
  0.00000000E+00  0.00000000E+00  0.00000000E+00
  0.00000000E+00  0.00000000E+00  0.00000000E+00
  0.00000000E+00  0.00000000E+00  0.00000000E+00
  0.00000000E+00  0.00000000E+00  0.00000000E+00
  0.00000000E+00  0.00000000E+00  0.00000000E+00
  0.00000000E+00  0.00000000E+00  0.00000000E+00
  0.00000000E+00  0.00000000E+00  0.00000000E+00
  0.00000000E+00  0.00000000E+00  0.00000000E+00
  0.00000000E+00  0.00000000E+00  0.00000000E+00
  0.00000000E+00  0.00000000E+00  0.00000000E+00
  0.00000000E+00  0.00000000E+00  0.00000000E+00
  0.00000000E+00  0.00000000E+00  0.00000000E+00
  0.00000000E+00  0.00000000E+00  0.00000000E+00
  0.00000000E+00  0.00000000E+00  0.00000000E+00
  0.00000000E+00  0.00000000E+00  0.00000000E+00
  0.00000000E+00  0.00000000E+00  0.00000000E+00
  0.00000000E+00  0.00000000E+00  0.00000000E+00
  0.00000000E+00  0.00000000E+00  0.00000000E+00
