Sodilite                                
   1.00000000000000     
     9.1603296303884250   -0.0243456412805695    0.0063867763133855
    -0.0243293005984003    9.1502946696012248    0.0243293005984003
     0.0063867763133855    0.0243456412805695    9.1603296303884250
   O    Na   Al   Si   Cl   K 
    24     4     6     6     2     4
Direct
  0.1432979533498068  0.4476192638583792  0.1479782473844835
  0.8602479173546809  0.5476730831858667  0.1515068335773229
  0.8597909020808769  0.4604518479554164  0.8437047359973341
  0.1452940296466503  0.5428462362622649  0.8469912481745515
  0.1662385595521489  0.1524306643384278  0.4438613093903288
  0.1426169473173494  0.8707276083964886  0.5401092073671310
  0.8401906673888957  0.8447927657593715  0.4494865998319312
  0.8619514993048328  0.1323701139760954  0.5335854971591808
  0.4500924380878332  0.1544494657314881  0.1424272150256324
  0.5410583802555959  0.1486567523739251  0.8572969144679462
  0.4604311841077811  0.8449067892861925  0.8542149479213902
  0.5516790256175556  0.8501588295176402  0.1391596358371217
  0.9664145028408192  0.6323701139760949  0.6380485006951672
  0.0505134001680689  0.3447927657593716  0.6598093326111043
  0.9598907926328690  0.3707276083964887  0.3573830526826506
  0.0561386906096712  0.6524306643384281  0.3337614404478509
  0.6427030855320538  0.6486567523739252  0.9589416197444041
  0.3575727849743675  0.6544494657314880  0.0499075619121669
  0.3608403641628781  0.3501588295176402  0.9483209743824444
  0.6457850520786098  0.3449067892861923  0.0395688158922187
  0.6562952640026659  0.9604518479554162  0.6402090979191231
  0.6530087518254485  0.0428462362622646  0.3547059703533498
  0.3520217526155165  0.9476192638583789  0.3567020466501928
  0.3484931664226772  0.0476730831858669  0.6397520826453191
  0.1969973828475383  0.1975502365279800  0.1945741353867490
  0.8080113459537319  0.8075511307571920  0.1929978375178109
  0.3070021624821891  0.3075511307571918  0.6919886540462681
  0.3054258646132511  0.6975502365279798  0.3030026171524617
  0.2531177364269419  0.5000051008540634 -0.0014350973344008
  0.7541169939666150  0.4991460114877315 -0.0014805919407225
  0.0096676592976509  0.2498484466650864  0.4967989451055779
  0.0032010548944221  0.7498484466650861  0.4903323407023491
  0.5014350973344012  0.0000051008540632  0.2468822635730581
  0.5014805919407228 -0.0008539885122688  0.7458830060333850
  0.2527249512810328  0.0038602202460528  0.4942536113995394
  0.7538415744912782 -0.0042731611371839  0.4937610297316198
  0.5001904729624207  0.2496081469471201 -0.0026309151340185
  0.5026309151340189  0.7496081469471199 -0.0001904729624203
  0.0057463886004606  0.5038602202460526  0.2472750487189675
  0.0062389702683799  0.4957268388628161  0.7461584255087218
  0.0041596967508846  0.0015509468411578  0.0715405069414279
  0.4284594930585722  0.5015509468411579  0.4958403032491152
  0.8367761667957265  0.1621220105870609  0.8344787101576077
  0.1648197077338391  0.8359474895821836  0.8341326286061227
  0.6655212898423923  0.6621220105870612  0.6632238332042735
  0.6658673713938773  0.3359474895821837  0.3351802922661613
 
  0.00000000E+00  0.00000000E+00  0.00000000E+00
  0.00000000E+00  0.00000000E+00  0.00000000E+00
  0.00000000E+00  0.00000000E+00  0.00000000E+00
  0.00000000E+00  0.00000000E+00  0.00000000E+00
  0.00000000E+00  0.00000000E+00  0.00000000E+00
  0.00000000E+00  0.00000000E+00  0.00000000E+00
  0.00000000E+00  0.00000000E+00  0.00000000E+00
  0.00000000E+00  0.00000000E+00  0.00000000E+00
  0.00000000E+00  0.00000000E+00  0.00000000E+00
  0.00000000E+00  0.00000000E+00  0.00000000E+00
  0.00000000E+00  0.00000000E+00  0.00000000E+00
  0.00000000E+00  0.00000000E+00  0.00000000E+00
  0.00000000E+00  0.00000000E+00  0.00000000E+00
  0.00000000E+00  0.00000000E+00  0.00000000E+00
  0.00000000E+00  0.00000000E+00  0.00000000E+00
  0.00000000E+00  0.00000000E+00  0.00000000E+00
  0.00000000E+00  0.00000000E+00  0.00000000E+00
  0.00000000E+00  0.00000000E+00  0.00000000E+00
  0.00000000E+00  0.00000000E+00  0.00000000E+00
  0.00000000E+00  0.00000000E+00  0.00000000E+00
  0.00000000E+00  0.00000000E+00  0.00000000E+00
  0.00000000E+00  0.00000000E+00  0.00000000E+00
  0.00000000E+00  0.00000000E+00  0.00000000E+00
  0.00000000E+00  0.00000000E+00  0.00000000E+00
  0.00000000E+00  0.00000000E+00  0.00000000E+00
  0.00000000E+00  0.00000000E+00  0.00000000E+00
  0.00000000E+00  0.00000000E+00  0.00000000E+00
  0.00000000E+00  0.00000000E+00  0.00000000E+00
  0.00000000E+00  0.00000000E+00  0.00000000E+00
  0.00000000E+00  0.00000000E+00  0.00000000E+00
  0.00000000E+00  0.00000000E+00  0.00000000E+00
  0.00000000E+00  0.00000000E+00  0.00000000E+00
  0.00000000E+00  0.00000000E+00  0.00000000E+00
  0.00000000E+00  0.00000000E+00  0.00000000E+00
  0.00000000E+00  0.00000000E+00  0.00000000E+00
  0.00000000E+00  0.00000000E+00  0.00000000E+00
  0.00000000E+00  0.00000000E+00  0.00000000E+00
  0.00000000E+00  0.00000000E+00  0.00000000E+00
  0.00000000E+00  0.00000000E+00  0.00000000E+00
  0.00000000E+00  0.00000000E+00  0.00000000E+00
  0.00000000E+00  0.00000000E+00  0.00000000E+00
  0.00000000E+00  0.00000000E+00  0.00000000E+00
  0.00000000E+00  0.00000000E+00  0.00000000E+00
  0.00000000E+00  0.00000000E+00  0.00000000E+00
  0.00000000E+00  0.00000000E+00  0.00000000E+00
  0.00000000E+00  0.00000000E+00  0.00000000E+00
