Sodilite                                
   1.00000000000000     
     9.1078397468582502    0.0143885074987054    0.0158389510594593
     0.0143931812660144    9.0936807143536313   -0.0137222317158890
     0.0158422327754778   -0.0137298616416832    9.0947822028189282
   O    Na   Al   Si   Cl   K 
    24     5     6     6     2     3
Direct
  0.1356426578076496  0.4583859566702759  0.1496284002583177
  0.8523173230898662  0.5577947646107559  0.1554152595716177
  0.8634539125932525  0.4455611195505027  0.8562578847763875
  0.1450294503298927  0.5533912714067529  0.8432756211771605
  0.1446429225650565  0.1393021546672378  0.4595838958205684
  0.1540896196893801  0.8525735831696919  0.5529392149078900
  0.8523902521780129  0.8661688584822678  0.4441795024997963
  0.8425793569278520  0.1451872293599051  0.5585967021149167
  0.4559534687269997  0.1454217893113926  0.1364125573325589
  0.5550341412005089  0.1591868629056927  0.8526933899382233
  0.4467347642431431  0.8563774309588159  0.8655954665786949
  0.5543285202767443  0.8427941992827969  0.1479701029911069
  0.9412801792068872  0.6541333169666419  0.6644633099133520
  0.0425679161853601  0.3721889373361200  0.6406888715731054
  0.9442874897996699  0.3472122226489731  0.3372022282660649
  0.0410216110317330  0.6310082436747303  0.3630439383483637
  0.6400106150756775  0.6518812821638322  0.9434969946185664
  0.3583107069191014  0.6526193441962086  0.0472161442044983
  0.3573765793401144  0.3489042617647651  0.9568131510006650
  0.6417381731569538  0.3510637103849330  0.0548787571062014
  0.6494689374740803  0.9438969474267446  0.6405521299168683
  0.6502464671219415  0.0560788767830296  0.3607042061042137
  0.3463032398057887  0.9562764822265040  0.3583874479146720
  0.3483571834401243  0.0460348924479550  0.6442860741492920
  0.8099842707381166  0.8111673503879353  0.1886745855691571
  0.8104945182749069  0.1897318805182741  0.8118417169317889
  0.1830171389703852  0.8144169972046800  0.8134919447804126
  0.6940551217202391  0.6971977673967640  0.6968385994369202
  0.6917551579708077  0.3077296696342066  0.3066944311755410
  0.2477665065661609  0.5029472838824979 -0.0005245054435814
  0.7489534024985881  0.5027958383448471  0.0018532044999994
 -0.0074299286184827  0.2518160300793971  0.4995713438721285
 -0.0046596781802294  0.7516856322706772  0.5061007873758987
  0.5014226455147985 -0.0008479785974025  0.2516622334346663
  0.5012200186540555  0.0020685010547822  0.7517438613712294
  0.2477563406898676 -0.0010409356136348  0.5036814310791550
  0.7486045248425535  0.0025398578197458  0.5017435199171564
  0.5022626633728475  0.2514259905634391 -0.0000436686907354
  0.5004161155093928  0.7513753264921941  0.0013587373910244
 -0.0072405230698016  0.4992522212252770  0.2516560194517781
 -0.0031670353608248  0.5061953024328752  0.7513664400215269
 -0.0397344171006154 -0.0334114116190392 -0.0335988401482531
  0.5790430982751594  0.5026964012424132  0.5024881241174844
  0.1567495007386920  0.1565909545408494  0.1575788367225402
  0.3383562440614739  0.3405179295396501  0.6603482896300218
  0.3372088257461199  0.6597056528030466  0.3411916564210389
 
  0.00000000E+00  0.00000000E+00  0.00000000E+00
  0.00000000E+00  0.00000000E+00  0.00000000E+00
  0.00000000E+00  0.00000000E+00  0.00000000E+00
  0.00000000E+00  0.00000000E+00  0.00000000E+00
  0.00000000E+00  0.00000000E+00  0.00000000E+00
  0.00000000E+00  0.00000000E+00  0.00000000E+00
  0.00000000E+00  0.00000000E+00  0.00000000E+00
  0.00000000E+00  0.00000000E+00  0.00000000E+00
  0.00000000E+00  0.00000000E+00  0.00000000E+00
  0.00000000E+00  0.00000000E+00  0.00000000E+00
  0.00000000E+00  0.00000000E+00  0.00000000E+00
  0.00000000E+00  0.00000000E+00  0.00000000E+00
  0.00000000E+00  0.00000000E+00  0.00000000E+00
  0.00000000E+00  0.00000000E+00  0.00000000E+00
  0.00000000E+00  0.00000000E+00  0.00000000E+00
  0.00000000E+00  0.00000000E+00  0.00000000E+00
  0.00000000E+00  0.00000000E+00  0.00000000E+00
  0.00000000E+00  0.00000000E+00  0.00000000E+00
  0.00000000E+00  0.00000000E+00  0.00000000E+00
  0.00000000E+00  0.00000000E+00  0.00000000E+00
  0.00000000E+00  0.00000000E+00  0.00000000E+00
  0.00000000E+00  0.00000000E+00  0.00000000E+00
  0.00000000E+00  0.00000000E+00  0.00000000E+00
  0.00000000E+00  0.00000000E+00  0.00000000E+00
  0.00000000E+00  0.00000000E+00  0.00000000E+00
  0.00000000E+00  0.00000000E+00  0.00000000E+00
  0.00000000E+00  0.00000000E+00  0.00000000E+00
  0.00000000E+00  0.00000000E+00  0.00000000E+00
  0.00000000E+00  0.00000000E+00  0.00000000E+00
  0.00000000E+00  0.00000000E+00  0.00000000E+00
  0.00000000E+00  0.00000000E+00  0.00000000E+00
  0.00000000E+00  0.00000000E+00  0.00000000E+00
  0.00000000E+00  0.00000000E+00  0.00000000E+00
  0.00000000E+00  0.00000000E+00  0.00000000E+00
  0.00000000E+00  0.00000000E+00  0.00000000E+00
  0.00000000E+00  0.00000000E+00  0.00000000E+00
  0.00000000E+00  0.00000000E+00  0.00000000E+00
  0.00000000E+00  0.00000000E+00  0.00000000E+00
  0.00000000E+00  0.00000000E+00  0.00000000E+00
  0.00000000E+00  0.00000000E+00  0.00000000E+00
  0.00000000E+00  0.00000000E+00  0.00000000E+00
  0.00000000E+00  0.00000000E+00  0.00000000E+00
  0.00000000E+00  0.00000000E+00  0.00000000E+00
  0.00000000E+00  0.00000000E+00  0.00000000E+00
  0.00000000E+00  0.00000000E+00  0.00000000E+00
  0.00000000E+00  0.00000000E+00  0.00000000E+00
