Sodilite                                
   1.00000000000000     
     9.1087007126776385   -0.0145125202617112   -0.0158430384866665
    -0.0145175858740213    9.0943223539417595   -0.0137638430537996
    -0.0158463713090085   -0.0137710432938087    9.0955370945000205
   O    Na   Al   Si   Cl   K 
    24     5     6     6     2     3
Direct
  0.1450268062387334  0.4466065671303672  0.1567389416205250
  0.8634536239947233  0.5544333890630284  0.1437543713141135
  0.8523128346875566  0.4422078252181438  0.8445707748001102
  0.1356283194508576  0.5415942132051585  0.8503742685235275
  0.1540961581390147  0.1474358538324442  0.4470560966147216
  0.1446410652940496  0.8607004615962214  0.5404072101017414
  0.8425782998662625  0.8548059655341724  0.4414159395891026
  0.8523922585458988  0.1338229106527354  0.5557973948255194
  0.4467708244843290  0.1435822271192125  0.1343564086092474
  0.5543343832156525  0.1572484487925123  0.8520109884868712
  0.4559763876079093  0.8546122615307494  0.8636330632741271
  0.5550175792559182  0.8407715301735781  0.1473159309681039
  0.9442757578286427  0.6528066915883003  0.6628240093611064
  0.0410131445897903  0.3690138458266486  0.6369396875719926
  0.9412748781583182  0.3458489275007981  0.3355107511206246
  0.0425453782669358  0.6277687841353038  0.3593215938486157
  0.6417356613127719  0.6489166264174965  0.9451072227087920
  0.3573404569534465  0.6511262946945338  0.0431944380178274
  0.3583157387827501  0.3473861738035292  0.9527969427216013
  0.6400308262751216  0.3480889096828552  0.0565114984513372
  0.6502301471066118  0.9439243279551007  0.6392887058569270
  0.6494966918281880  0.0561302938964639  0.3594164259329274
  0.3483616943424799  0.9539651205168904  0.3557221098704930
  0.3462793659568389  0.0437189656722122  0.6416188379595272
  0.1830904646310568  0.1856131939705745  0.1865316359796037
  0.8104747192472225  0.8102353099739628  0.1881890667117686
  0.8099606663331971  0.1888641671164031  0.8112926178285214
  0.6917612714665438  0.6922887257895431  0.6933282247413832
  0.6940612295457418  0.3028105210137659  0.3031722659356522
  0.2477611106299810  0.4970596522676280  0.0005145955742436
  0.7489518027002741  0.4971873633898597 -0.0018564248132049
 -0.0046738421988367  0.2483207243840554  0.4939070059310566
 -0.0074293913180660  0.7481680636960022  0.5004240601939328
  0.5012229520194671 -0.0020909257594214  0.2482421142433907
  0.5014015653987046  0.0008502556220282  0.7483442829113953
  0.2477585359135837  0.0010585578553487  0.4963177793980522
  0.7486003374050739 -0.0025460815780005  0.4982403150373950
  0.5004229924134315  0.2486227505627771 -0.0013662950466581
  0.5022704794186195  0.7485693234906494  0.0000528654697892
 -0.0031787964251651  0.4937833655190907  0.2486433391925669
 -0.0072581223095338  0.5007628618668959  0.7483324141807929
 -0.0395826436641006  0.0333945929306766  0.0335838823641239
  0.5789737311550958  0.4973450895686820  0.4975526278109961
  0.1567887195912068  0.8433867535703239  0.8423976559613248
  0.3371678260879187  0.3402805316317969  0.6588485362247219
  0.3383261097757817  0.6595185875789019  0.3396238220196703
 
  0.00000000E+00  0.00000000E+00  0.00000000E+00
  0.00000000E+00  0.00000000E+00  0.00000000E+00
  0.00000000E+00  0.00000000E+00  0.00000000E+00
  0.00000000E+00  0.00000000E+00  0.00000000E+00
  0.00000000E+00  0.00000000E+00  0.00000000E+00
  0.00000000E+00  0.00000000E+00  0.00000000E+00
  0.00000000E+00  0.00000000E+00  0.00000000E+00
  0.00000000E+00  0.00000000E+00  0.00000000E+00
  0.00000000E+00  0.00000000E+00  0.00000000E+00
  0.00000000E+00  0.00000000E+00  0.00000000E+00
  0.00000000E+00  0.00000000E+00  0.00000000E+00
  0.00000000E+00  0.00000000E+00  0.00000000E+00
  0.00000000E+00  0.00000000E+00  0.00000000E+00
  0.00000000E+00  0.00000000E+00  0.00000000E+00
  0.00000000E+00  0.00000000E+00  0.00000000E+00
  0.00000000E+00  0.00000000E+00  0.00000000E+00
  0.00000000E+00  0.00000000E+00  0.00000000E+00
  0.00000000E+00  0.00000000E+00  0.00000000E+00
  0.00000000E+00  0.00000000E+00  0.00000000E+00
  0.00000000E+00  0.00000000E+00  0.00000000E+00
  0.00000000E+00  0.00000000E+00  0.00000000E+00
  0.00000000E+00  0.00000000E+00  0.00000000E+00
  0.00000000E+00  0.00000000E+00  0.00000000E+00
  0.00000000E+00  0.00000000E+00  0.00000000E+00
  0.00000000E+00  0.00000000E+00  0.00000000E+00
  0.00000000E+00  0.00000000E+00  0.00000000E+00
  0.00000000E+00  0.00000000E+00  0.00000000E+00
  0.00000000E+00  0.00000000E+00  0.00000000E+00
  0.00000000E+00  0.00000000E+00  0.00000000E+00
  0.00000000E+00  0.00000000E+00  0.00000000E+00
  0.00000000E+00  0.00000000E+00  0.00000000E+00
  0.00000000E+00  0.00000000E+00  0.00000000E+00
  0.00000000E+00  0.00000000E+00  0.00000000E+00
  0.00000000E+00  0.00000000E+00  0.00000000E+00
  0.00000000E+00  0.00000000E+00  0.00000000E+00
  0.00000000E+00  0.00000000E+00  0.00000000E+00
  0.00000000E+00  0.00000000E+00  0.00000000E+00
  0.00000000E+00  0.00000000E+00  0.00000000E+00
  0.00000000E+00  0.00000000E+00  0.00000000E+00
  0.00000000E+00  0.00000000E+00  0.00000000E+00
  0.00000000E+00  0.00000000E+00  0.00000000E+00
  0.00000000E+00  0.00000000E+00  0.00000000E+00
  0.00000000E+00  0.00000000E+00  0.00000000E+00
  0.00000000E+00  0.00000000E+00  0.00000000E+00
  0.00000000E+00  0.00000000E+00  0.00000000E+00
  0.00000000E+00  0.00000000E+00  0.00000000E+00
