Sodilite                                
   1.00000000000000     
     9.1744897841598156   -0.0244313148726708   -0.0032156245447184
    -0.0244310787371175    9.1822952181652600   -0.0258902644822473
    -0.0032128580458548   -0.0258871541160568    9.1734377529028066
   O    Na   Al   Si   Cl   K 
    24     4     6     6     2     4
Direct
  0.1489386867100879  0.4515314661827483  0.1587991891735313
  0.8636403265377584  0.5374098216020222  0.1394909911428718
  0.8467053386363107  0.4572043387112658  0.8365512791359414
  0.1317928547872476  0.5387990416680180  0.8533273473706131
  0.1561988345223553  0.1513516289552542  0.4491899922001895
  0.1432968154800870  0.8651217490689431  0.5344621754642453
  0.8372670636724314  0.8504728762482735  0.4569311759279975
  0.8529800180099437  0.1354480346551216  0.5384793189609214
  0.4476687657260720  0.1603002682793450  0.1477126323157131
  0.5386448583553787  0.1442495424551970  0.8643698656493947
  0.4582440670764464  0.8416078970361320  0.8462428237815878
  0.5347458018544375  0.8539976531688417  0.1339529290295818
  0.9543493682639271  0.6468706976004652  0.6533856892448758
  0.0452524283852118  0.3604790721865335  0.6461435995127962
  0.9465859991764428  0.3549442922496359  0.3432496049191259
  0.0370805638030094  0.6387337402596889  0.3470714906485139
  0.6452119054904915  0.6559235474053834  0.9533996884770392
  0.3580003101273628  0.6480571085026927  0.0360762399653356
  0.3536132443709178  0.3459505384983687  0.9473740591709497
  0.6367792699016289  0.3493859859997395  0.0462644839786154
  0.6446532289558917  0.9584819776787716  0.6354635098361260
  0.6553834074453460  0.0478411198351666  0.3484958103992310
  0.3536530920464044  0.9597793097479170  0.3635621392269598
  0.3374770284634736  0.0497308485526634  0.6470516702484326
  0.2034878782684901  0.2051879052102473  0.2046054389157900
  0.6872455874091402  0.6821119298369738  0.6871055336280413
  0.3083260276284049  0.3077445984154689  0.6913449706409714
  0.6910241569106614  0.3062311257708197  0.3095559418462091
  0.2468412837510494  0.4961120168063583 -0.0013173530293511
  0.7460839148098711  0.4984338755879016 -0.0060383986045006
 -0.0013756194342550  0.2507796749156583  0.4944074570595579
 -0.0059505441532566  0.7500066903193026  0.4966387989515854
  0.4970835621303743  0.0043649574270293  0.2468152055267541
  0.4942003310040226  0.0000545690964516  0.7462847782837079
  0.2469875557716795  0.0058216912647836  0.4977691164772422
  0.7466460078543804 -0.0010984069201545  0.4944692207138480
  0.4939660595743601  0.2501567860475390  0.0002636403743093
  0.4980108542285795  0.7497595020319915 -0.0071211234496056
 -0.0014057401136409  0.4956589874773313  0.2467302328267715
 -0.0055629193357012  0.4999449947703161  0.7465221968559750
  0.0374002995002279  0.0410640749521028  0.0375834881184900
  0.5281982599908444  0.4645739284430826  0.5285199382548449
  0.8288512737733907  0.8285786803946681  0.1659123303129161
  0.8270535840415002  0.1682338747588921  0.8273354120457079
  0.1669044446706633  0.8297757759148316  0.8284592587101786
  0.3378204639205523  0.6628302109302141  0.3371062097599672
 
  0.00000000E+00  0.00000000E+00  0.00000000E+00
  0.00000000E+00  0.00000000E+00  0.00000000E+00
  0.00000000E+00  0.00000000E+00  0.00000000E+00
  0.00000000E+00  0.00000000E+00  0.00000000E+00
  0.00000000E+00  0.00000000E+00  0.00000000E+00
  0.00000000E+00  0.00000000E+00  0.00000000E+00
  0.00000000E+00  0.00000000E+00  0.00000000E+00
  0.00000000E+00  0.00000000E+00  0.00000000E+00
  0.00000000E+00  0.00000000E+00  0.00000000E+00
  0.00000000E+00  0.00000000E+00  0.00000000E+00
  0.00000000E+00  0.00000000E+00  0.00000000E+00
  0.00000000E+00  0.00000000E+00  0.00000000E+00
  0.00000000E+00  0.00000000E+00  0.00000000E+00
  0.00000000E+00  0.00000000E+00  0.00000000E+00
  0.00000000E+00  0.00000000E+00  0.00000000E+00
  0.00000000E+00  0.00000000E+00  0.00000000E+00
  0.00000000E+00  0.00000000E+00  0.00000000E+00
  0.00000000E+00  0.00000000E+00  0.00000000E+00
  0.00000000E+00  0.00000000E+00  0.00000000E+00
  0.00000000E+00  0.00000000E+00  0.00000000E+00
  0.00000000E+00  0.00000000E+00  0.00000000E+00
  0.00000000E+00  0.00000000E+00  0.00000000E+00
  0.00000000E+00  0.00000000E+00  0.00000000E+00
  0.00000000E+00  0.00000000E+00  0.00000000E+00
  0.00000000E+00  0.00000000E+00  0.00000000E+00
  0.00000000E+00  0.00000000E+00  0.00000000E+00
  0.00000000E+00  0.00000000E+00  0.00000000E+00
  0.00000000E+00  0.00000000E+00  0.00000000E+00
  0.00000000E+00  0.00000000E+00  0.00000000E+00
  0.00000000E+00  0.00000000E+00  0.00000000E+00
  0.00000000E+00  0.00000000E+00  0.00000000E+00
  0.00000000E+00  0.00000000E+00  0.00000000E+00
  0.00000000E+00  0.00000000E+00  0.00000000E+00
  0.00000000E+00  0.00000000E+00  0.00000000E+00
  0.00000000E+00  0.00000000E+00  0.00000000E+00
  0.00000000E+00  0.00000000E+00  0.00000000E+00
  0.00000000E+00  0.00000000E+00  0.00000000E+00
  0.00000000E+00  0.00000000E+00  0.00000000E+00
  0.00000000E+00  0.00000000E+00  0.00000000E+00
  0.00000000E+00  0.00000000E+00  0.00000000E+00
  0.00000000E+00  0.00000000E+00  0.00000000E+00
  0.00000000E+00  0.00000000E+00  0.00000000E+00
  0.00000000E+00  0.00000000E+00  0.00000000E+00
  0.00000000E+00  0.00000000E+00  0.00000000E+00
  0.00000000E+00  0.00000000E+00  0.00000000E+00
  0.00000000E+00  0.00000000E+00  0.00000000E+00
