Sodilite                                
   1.00000000000000     
     9.0943264994476198    0.0137662611567958   -0.0145128899636354
     0.0137734926060067    9.0955359314901951    0.0158438187886243
    -0.0145078169148040    0.0158404514031232    9.1086860749993210
   O    Na   Al   Si   Cl   K 
    24     5     6     6     2     3
Direct
  0.1451936360071043  0.4414157334702241  0.1574209922713123
  0.8661764884484915  0.5557972057442329  0.1476084868911996
  0.8525649940309007  0.4470560124137637  0.8459046096100298
  0.1392995188102905  0.5404089058538271  0.8553586938638547
  0.1592261171843217  0.1473138338463196  0.4449832072416055
  0.1453898335298089  0.8636309068687503  0.5440252337500068
  0.8427538072213292  0.8520130360985605  0.4456656535041110
  0.8564155029592418  0.1343585066486934  0.5532304110237969
  0.4455667823508465  0.1437551004677623  0.1365467634695565
  0.5533936444413851  0.1567384839386272  0.8549728691897002
  0.4584044679600804  0.8503740960586877  0.8643711518015869
  0.5577917110375353  0.8445714272340992  0.1476866313847223
  0.9562805808913488  0.6416181131958166  0.6537197544382711
  0.0460362356350415  0.3557218263739801  0.6516390245343988
  0.9438701613685920  0.3594169338255059  0.3505039346095019
  0.0560764950016339  0.6392896143669279  0.3497686903874931
  0.6309873494734329  0.6369412358623096  0.9589856607685660
  0.3471941617401541  0.6628231240513694  0.0557241008022927
  0.3722299233663537  0.3593205279594622  0.9574531653579824
  0.6541500969441137  0.3355117327023047  0.0587238548262847
  0.6526148471867942  0.9527949207246049  0.6416853895904150
  0.6519100280090727  0.0565105836208132  0.3599702925591689
  0.3510819896527356  0.9451070084965562  0.3582627101661308
  0.3488747202693275  0.0431950062409621  0.6426581739216906
  0.1897638124993786  0.1881888419607871  0.1895258531280938
  0.8111356707620769  0.8112936368059458  0.1900393827593235
  0.8143865306512645  0.1865323756393393  0.8169137964576699
  0.6971916265005017  0.3031698998141598  0.3059372364925264
  0.3077114641666838  0.6933280789901732  0.3082380806554064
  0.2518319157939468  0.5004237737741175  0.0074286439487688
  0.7516790705496641  0.4939080538183223  0.0046739515289982
  0.0020902127986061  0.2482421103376318  0.4987779705786738
 -0.0008493629870513  0.7483443470367901  0.4985984575756588
  0.5028121659351472 -0.0018561073929952  0.2510481855867828
  0.5029403832007536  0.0005140617287666  0.7522384141854727
  0.2514305252959766  0.0000519505426253  0.4977292945834437
  0.7513771971310501 -0.0013658862525876  0.4995778864341462
  0.5062159313010124  0.2486433908706299  0.0031782686173000
  0.4992371950475842  0.7483327454031644  0.0072575949495374
  0.0025461482325964  0.4982406539412477  0.2513996318478652
 -0.0010581925767722  0.4963179922974104  0.7522414708511055
 -0.0333954248627178  0.0335845237647076  0.0395882754574708
  0.5026562414239236  0.4975512708246665  0.4210231491821831
  0.1566117118213067  0.8423994531153121  0.8432141120258101
  0.6597191911882325  0.6588466472210232  0.6628294974675660
  0.3404828926068982  0.3396243096946008  0.6616713897225193
 
  0.00000000E+00  0.00000000E+00  0.00000000E+00
  0.00000000E+00  0.00000000E+00  0.00000000E+00
  0.00000000E+00  0.00000000E+00  0.00000000E+00
  0.00000000E+00  0.00000000E+00  0.00000000E+00
  0.00000000E+00  0.00000000E+00  0.00000000E+00
  0.00000000E+00  0.00000000E+00  0.00000000E+00
  0.00000000E+00  0.00000000E+00  0.00000000E+00
  0.00000000E+00  0.00000000E+00  0.00000000E+00
  0.00000000E+00  0.00000000E+00  0.00000000E+00
  0.00000000E+00  0.00000000E+00  0.00000000E+00
  0.00000000E+00  0.00000000E+00  0.00000000E+00
  0.00000000E+00  0.00000000E+00  0.00000000E+00
  0.00000000E+00  0.00000000E+00  0.00000000E+00
  0.00000000E+00  0.00000000E+00  0.00000000E+00
  0.00000000E+00  0.00000000E+00  0.00000000E+00
  0.00000000E+00  0.00000000E+00  0.00000000E+00
  0.00000000E+00  0.00000000E+00  0.00000000E+00
  0.00000000E+00  0.00000000E+00  0.00000000E+00
  0.00000000E+00  0.00000000E+00  0.00000000E+00
  0.00000000E+00  0.00000000E+00  0.00000000E+00
  0.00000000E+00  0.00000000E+00  0.00000000E+00
  0.00000000E+00  0.00000000E+00  0.00000000E+00
  0.00000000E+00  0.00000000E+00  0.00000000E+00
  0.00000000E+00  0.00000000E+00  0.00000000E+00
  0.00000000E+00  0.00000000E+00  0.00000000E+00
  0.00000000E+00  0.00000000E+00  0.00000000E+00
  0.00000000E+00  0.00000000E+00  0.00000000E+00
  0.00000000E+00  0.00000000E+00  0.00000000E+00
  0.00000000E+00  0.00000000E+00  0.00000000E+00
  0.00000000E+00  0.00000000E+00  0.00000000E+00
  0.00000000E+00  0.00000000E+00  0.00000000E+00
  0.00000000E+00  0.00000000E+00  0.00000000E+00
  0.00000000E+00  0.00000000E+00  0.00000000E+00
  0.00000000E+00  0.00000000E+00  0.00000000E+00
  0.00000000E+00  0.00000000E+00  0.00000000E+00
  0.00000000E+00  0.00000000E+00  0.00000000E+00
  0.00000000E+00  0.00000000E+00  0.00000000E+00
  0.00000000E+00  0.00000000E+00  0.00000000E+00
  0.00000000E+00  0.00000000E+00  0.00000000E+00
  0.00000000E+00  0.00000000E+00  0.00000000E+00
  0.00000000E+00  0.00000000E+00  0.00000000E+00
  0.00000000E+00  0.00000000E+00  0.00000000E+00
  0.00000000E+00  0.00000000E+00  0.00000000E+00
  0.00000000E+00  0.00000000E+00  0.00000000E+00
  0.00000000E+00  0.00000000E+00  0.00000000E+00
  0.00000000E+00  0.00000000E+00  0.00000000E+00
