Sodilite                                
   1.00000000000000     
     9.2705327807252242    0.0100832705454317    0.0100832683049662
     0.0100832683049662    9.2705327807252242    0.0100832705454317
     0.0100832705454317    0.0100832683049662    9.2705327807252242
   O    Na   Al   Si   Cl   K 
    24     3     6     6     2     5
Direct
  0.1457613705826702  0.4688036063739404  0.1552274028053722
  0.8585768814654648  0.5328435161752664  0.1539150470543296
  0.8569350101142377  0.4708093545311858  0.8468771006897863
  0.1454451886246955  0.5313773161497544  0.8496841073633805
  0.1552274028053722  0.1457613705826702  0.4688036063739404
  0.1539150470543296  0.8585768814654648  0.5328435161752664
  0.8468771006897863  0.8569350101142377  0.4708093545311858
  0.8496841073633805  0.1454451886246955  0.5313773161497544
  0.4688036063739404  0.1552274028053722  0.1457613705826702
  0.5328435161752664  0.1539150470543296  0.8585768814654648
  0.4708093545311858  0.8468771006897863  0.8569350101142377
  0.5313773161497544  0.8496841073633805  0.1454451886246955
  0.9713257090261987  0.6402067875720435  0.6498779625971161
  0.0402244945282849  0.3530319883150684  0.6582200173365784
  0.9633896763269595  0.3613954224952404  0.3513153034465618
  0.0392297167495747  0.6487928411375599  0.3442797852833644
  0.6402067875720435  0.6498779625971161  0.9713257090261987
  0.3530319883150684  0.6582200173365784  0.0402244945282849
  0.3613954224952404  0.3513153034465618  0.9633896763269595
  0.6487928411375599  0.3442797852833644  0.0392297167495747
  0.6498779625971161  0.9713257090261987  0.6402067875720435
  0.6582200173365784  0.0402244945282849  0.3530319883150684
  0.3513153034465618  0.9633896763269595  0.3613954224952404
  0.3442797852833644  0.0392297167495747  0.6487928411375599
  0.3034233643594361  0.3033281590614516  0.6899562683956564
  0.6899562683956564  0.3034233643594361  0.3033281590614516
  0.3033281590614516  0.6899562683956564  0.3034233643594361
  0.2525688882538559  0.5017810803630647  0.0023944254402177
  0.7513810873108471  0.4999039814123943  0.0023294736059492
  0.0023944254402177  0.2525688882538559  0.5017810803630647
  0.0023294736059492  0.7513810873108471  0.4999039814123943
  0.5017810803630647  0.0023944254402176  0.2525688882538559
  0.4999039814123943  0.0023294736059492  0.7513810873108471
  0.2517181993448188  0.0019123244753955  0.5026361485011142
  0.7512605893946822  0.0032627590240030  0.4993169708729324
  0.5026361485011142  0.2517181993448188  0.0019123244753955
  0.4993169708729324  0.7512605893946822  0.0032627590240030
  0.0019123244753955  0.5026361485011142  0.2517181993448188
  0.0032627590240030  0.4993169708729324  0.7512605893946822
  0.0027301839263635  0.0027301839263635  0.0027301839263635
  0.4715551425677461  0.4715551425677461  0.4715551425677461
  0.1846855390973879  0.1846855390973879  0.1846855390973879
  0.8183785638893364  0.8192588684819022  0.1818112641454818
  0.8192588684819022  0.1818112641454818  0.8183785638893364
  0.1818112641454818  0.8183785638893364  0.8192588684819022
  0.6668611113313291  0.6668611113313291  0.6668611113313291
 
  0.00000000E+00  0.00000000E+00  0.00000000E+00
  0.00000000E+00  0.00000000E+00  0.00000000E+00
  0.00000000E+00  0.00000000E+00  0.00000000E+00
  0.00000000E+00  0.00000000E+00  0.00000000E+00
  0.00000000E+00  0.00000000E+00  0.00000000E+00
  0.00000000E+00  0.00000000E+00  0.00000000E+00
  0.00000000E+00  0.00000000E+00  0.00000000E+00
  0.00000000E+00  0.00000000E+00  0.00000000E+00
  0.00000000E+00  0.00000000E+00  0.00000000E+00
  0.00000000E+00  0.00000000E+00  0.00000000E+00
  0.00000000E+00  0.00000000E+00  0.00000000E+00
  0.00000000E+00  0.00000000E+00  0.00000000E+00
  0.00000000E+00  0.00000000E+00  0.00000000E+00
  0.00000000E+00  0.00000000E+00  0.00000000E+00
  0.00000000E+00  0.00000000E+00  0.00000000E+00
  0.00000000E+00  0.00000000E+00  0.00000000E+00
  0.00000000E+00  0.00000000E+00  0.00000000E+00
  0.00000000E+00  0.00000000E+00  0.00000000E+00
  0.00000000E+00  0.00000000E+00  0.00000000E+00
  0.00000000E+00  0.00000000E+00  0.00000000E+00
  0.00000000E+00  0.00000000E+00  0.00000000E+00
  0.00000000E+00  0.00000000E+00  0.00000000E+00
  0.00000000E+00  0.00000000E+00  0.00000000E+00
  0.00000000E+00  0.00000000E+00  0.00000000E+00
  0.00000000E+00  0.00000000E+00  0.00000000E+00
  0.00000000E+00  0.00000000E+00  0.00000000E+00
  0.00000000E+00  0.00000000E+00  0.00000000E+00
  0.00000000E+00  0.00000000E+00  0.00000000E+00
  0.00000000E+00  0.00000000E+00  0.00000000E+00
  0.00000000E+00  0.00000000E+00  0.00000000E+00
  0.00000000E+00  0.00000000E+00  0.00000000E+00
  0.00000000E+00  0.00000000E+00  0.00000000E+00
  0.00000000E+00  0.00000000E+00  0.00000000E+00
  0.00000000E+00  0.00000000E+00  0.00000000E+00
  0.00000000E+00  0.00000000E+00  0.00000000E+00
  0.00000000E+00  0.00000000E+00  0.00000000E+00
  0.00000000E+00  0.00000000E+00  0.00000000E+00
  0.00000000E+00  0.00000000E+00  0.00000000E+00
  0.00000000E+00  0.00000000E+00  0.00000000E+00
  0.00000000E+00  0.00000000E+00  0.00000000E+00
  0.00000000E+00  0.00000000E+00  0.00000000E+00
  0.00000000E+00  0.00000000E+00  0.00000000E+00
  0.00000000E+00  0.00000000E+00  0.00000000E+00
  0.00000000E+00  0.00000000E+00  0.00000000E+00
  0.00000000E+00  0.00000000E+00  0.00000000E+00
  0.00000000E+00  0.00000000E+00  0.00000000E+00
