Sodilite                                
   1.00000000000000     
     9.1001885229877804    0.0455009824659421    0.0113028135240385
     0.0454914992002582    9.0980112113217508    0.0118251874515889
     0.0113203420167556    0.0118376244336808    9.1015507653069143
   O    Na   Al   Si   Cl   K 
    24     5     6     6     2     3
Direct
  0.1430237744382515  0.4520747916197752  0.1550981761494087
  0.8596989694638216  0.5477619034293463  0.1557298983249928
  0.8597279810383679  0.4481381889551772  0.8513971548341011
  0.1424184624304776  0.5549856228804646  0.8540569818548299
  0.1396033971398494  0.1288445418800461  0.4574923816559981
  0.1658732584474864  0.8472944164080597  0.5594038279305591
  0.8611838066965951  0.8716378727551201  0.4614808697737239
  0.8386870148538189  0.1565657513499971  0.5579825729933713
  0.4522191714291833  0.1525340814910579  0.1434026220248691
  0.5566683123091357  0.1527725108976447  0.8617750432412449
  0.4476755840523255  0.8489664413792172  0.8605406345973581
  0.5461481791271492  0.8519036310366980  0.1450876611756230
  0.9532941946331801  0.6358949577554661  0.6496793161657491
  0.0595483849324481  0.3554079958571389  0.6601383529451462
  0.9511890067178916  0.3631590081132861  0.3576263831027204
  0.0527716806239207  0.6488013509448676  0.3480692080623559
  0.6381854016351798  0.6490881284843414  0.9575193160268088
  0.3543186096781751  0.6565261028084642  0.0575995494532883
  0.3644351851551027  0.3536283681221885  0.9482336349170035
  0.6469216675676430  0.3463066298861615  0.0569783454041263
  0.6457120239135462  0.9546885708403862  0.6387227993883750
  0.6593641460907408  0.0546707697287959  0.3558419891589742
  0.3528797161096605  0.9500207396870901  0.3663037388715932
  0.3466502378372783  0.0574847390807028  0.6487259606003087
  0.8073063106064173  0.1949016247734497  0.8093234621068816
  0.1946361516359433  0.8059593337705456  0.8105432104367160
  0.3122946122580982  0.3107466818278378  0.6898254747846694
  0.6863049954994426  0.3145201293041444  0.3162940780121610
  0.3128519051980397  0.6848889530405097  0.3165891861831108
  0.2521122748558519  0.5024537873855675  0.0049111782074244
  0.7517515857197175  0.4994698187183852  0.0050923682392381
 -0.0002827253967685  0.2516180646600769  0.5091875911588249
  0.0068325111086025  0.7521040655469625  0.5064125135532012
  0.5022443411990277  0.0034998037935111  0.2557344693401522
  0.4996554368299506  0.0031636152472265  0.7545995146544358
  0.2515542568995870 -0.0025356445388528  0.5088097009617291
  0.7517899256600535  0.0085852690970077  0.5049308609738066
  0.5042423121022744  0.2517734206007793  0.0035639033551407
  0.4975954875920449  0.7518131834478958  0.0054504764808921
  0.0024106825150762  0.5027524563134482  0.2554705399905915
  0.0037879237406575  0.4990272270322871  0.7546291461422158
  0.0015040869062031  0.0013145486098465 -0.0760777601101552
  0.4648662422979720  0.4645042412015408  0.4701050522322699
  0.1606161490614577  0.1601228880760875  0.1640597500730551
  0.8401009327337133  0.8416071243560278  0.1629934643929872
  0.6576264346554099  0.6585522923442223  0.6586654001781225
 
  0.00000000E+00  0.00000000E+00  0.00000000E+00
  0.00000000E+00  0.00000000E+00  0.00000000E+00
  0.00000000E+00  0.00000000E+00  0.00000000E+00
  0.00000000E+00  0.00000000E+00  0.00000000E+00
  0.00000000E+00  0.00000000E+00  0.00000000E+00
  0.00000000E+00  0.00000000E+00  0.00000000E+00
  0.00000000E+00  0.00000000E+00  0.00000000E+00
  0.00000000E+00  0.00000000E+00  0.00000000E+00
  0.00000000E+00  0.00000000E+00  0.00000000E+00
  0.00000000E+00  0.00000000E+00  0.00000000E+00
  0.00000000E+00  0.00000000E+00  0.00000000E+00
  0.00000000E+00  0.00000000E+00  0.00000000E+00
  0.00000000E+00  0.00000000E+00  0.00000000E+00
  0.00000000E+00  0.00000000E+00  0.00000000E+00
  0.00000000E+00  0.00000000E+00  0.00000000E+00
  0.00000000E+00  0.00000000E+00  0.00000000E+00
  0.00000000E+00  0.00000000E+00  0.00000000E+00
  0.00000000E+00  0.00000000E+00  0.00000000E+00
  0.00000000E+00  0.00000000E+00  0.00000000E+00
  0.00000000E+00  0.00000000E+00  0.00000000E+00
  0.00000000E+00  0.00000000E+00  0.00000000E+00
  0.00000000E+00  0.00000000E+00  0.00000000E+00
  0.00000000E+00  0.00000000E+00  0.00000000E+00
  0.00000000E+00  0.00000000E+00  0.00000000E+00
  0.00000000E+00  0.00000000E+00  0.00000000E+00
  0.00000000E+00  0.00000000E+00  0.00000000E+00
  0.00000000E+00  0.00000000E+00  0.00000000E+00
  0.00000000E+00  0.00000000E+00  0.00000000E+00
  0.00000000E+00  0.00000000E+00  0.00000000E+00
  0.00000000E+00  0.00000000E+00  0.00000000E+00
  0.00000000E+00  0.00000000E+00  0.00000000E+00
  0.00000000E+00  0.00000000E+00  0.00000000E+00
  0.00000000E+00  0.00000000E+00  0.00000000E+00
  0.00000000E+00  0.00000000E+00  0.00000000E+00
  0.00000000E+00  0.00000000E+00  0.00000000E+00
  0.00000000E+00  0.00000000E+00  0.00000000E+00
  0.00000000E+00  0.00000000E+00  0.00000000E+00
  0.00000000E+00  0.00000000E+00  0.00000000E+00
  0.00000000E+00  0.00000000E+00  0.00000000E+00
  0.00000000E+00  0.00000000E+00  0.00000000E+00
  0.00000000E+00  0.00000000E+00  0.00000000E+00
  0.00000000E+00  0.00000000E+00  0.00000000E+00
  0.00000000E+00  0.00000000E+00  0.00000000E+00
  0.00000000E+00  0.00000000E+00  0.00000000E+00
  0.00000000E+00  0.00000000E+00  0.00000000E+00
  0.00000000E+00  0.00000000E+00  0.00000000E+00
