Sodilite                                
   1.00000000000000     
     9.2872316151201435    0.0234454577004012    0.0234454577004012
     0.0234454577004012    9.2872316151201435   -0.0234454577004012
     0.0234454577004012   -0.0234454577004012    9.2872316151201435
   O    Na   Al   Si   Cl   K 
    24     2     6     6     2     6
Direct
  0.1367629266204324  0.4712840178169311  0.1522781790616555
  0.8497274135292561  0.5337524397404956  0.1591260839101090
  0.8588465288540892  0.4728631244628744  0.8544249973027233
  0.1474345013211970  0.5381448463646519  0.8439590179672909
  0.1455750026972766  0.1411534711459109  0.4728631244628744
  0.1560409820327086  0.8525654986788033  0.5381448463646519
  0.8477218209383443  0.8632370733795676  0.4712840178169311
  0.8408739160898914  0.1502725864707438  0.5337524397404956
  0.4662475602595041  0.1591260839101090  0.1502725864707438
  0.5287159821830683  0.1522781790616555  0.8632370733795676
  0.4618551536353482  0.8439590179672909  0.8525654986788033
  0.5271368755371261  0.8544249973027233  0.1411534711459109
  0.9662475602595044  0.6502725864707439  0.6591260839101086
  0.0287159821830687  0.3632370733795678  0.6522781790616557
  0.9618551536353481  0.3525654986788033  0.3439590179672916
  0.0271368755371257  0.6411534711459108  0.3544249973027237
  0.6367629266204324  0.6522781790616557  0.9712840178169317
  0.3497274135292564  0.6591260839101086  0.0337524397404954
  0.3588465288540892  0.3544249973027237  0.9728631244628739
  0.6474345013211967  0.3439590179672916  0.0381448463646518
  0.6455750026972767  0.9728631244628739  0.6411534711459108
  0.6560409820327091  0.0381448463646518  0.3525654986788033
  0.3477218209383448  0.9712840178169317  0.3632370733795678
  0.3408739160898909  0.0337524397404954  0.6502725864707439
  0.2003031607848025  0.7996968392151976  0.7996968392151976
  0.7003031607848024  0.2996968392151975  0.2996968392151975
  0.2466539209036947  0.5051170156377643  0.0019687404972312
  0.7466539209036951  0.5019687404972308  0.0051170156377639
 -0.0051170156377639  0.2533460790963056  0.5019687404972308
 -0.0019687404972312  0.7533460790963049  0.5051170156377643
  0.4980312595027688  0.0051170156377639  0.2533460790963056
  0.4948829843622362  0.0019687404972312  0.7533460790963049
  0.2469119809506527  0.0006372474676020  0.5059387325783662
  0.7469119809506528  0.0059387325783659  0.5006372474676021
  0.4993627525323983  0.2530880190493472  0.0059387325783659
  0.4940612674216341  0.7530880190493472  0.0006372474676020
 -0.0059387325783659  0.5006372474676021  0.2530880190493472
 -0.0006372474676020  0.5059387325783662  0.7530880190493471
  0.0314515628562325 -0.0314515628562325 -0.0314515628562325
  0.5314515628562330  0.4685484371437676  0.4685484371437676
  0.1748768708659953  0.1761287500546907  0.1773456738239667
  0.8226543261760334  0.8251231291340049  0.1761287500546907
  0.8238712499453100  0.1773456738239667  0.8251231291340049
  0.6748768708659951  0.6773456738239666  0.6761287500546900
  0.3238712499453093  0.3251231291340046  0.6773456738239666
  0.3226543261760334  0.6761287500546900  0.3251231291340046
 
  0.00000000E+00  0.00000000E+00  0.00000000E+00
  0.00000000E+00  0.00000000E+00  0.00000000E+00
  0.00000000E+00  0.00000000E+00  0.00000000E+00
  0.00000000E+00  0.00000000E+00  0.00000000E+00
  0.00000000E+00  0.00000000E+00  0.00000000E+00
  0.00000000E+00  0.00000000E+00  0.00000000E+00
  0.00000000E+00  0.00000000E+00  0.00000000E+00
  0.00000000E+00  0.00000000E+00  0.00000000E+00
  0.00000000E+00  0.00000000E+00  0.00000000E+00
  0.00000000E+00  0.00000000E+00  0.00000000E+00
  0.00000000E+00  0.00000000E+00  0.00000000E+00
  0.00000000E+00  0.00000000E+00  0.00000000E+00
  0.00000000E+00  0.00000000E+00  0.00000000E+00
  0.00000000E+00  0.00000000E+00  0.00000000E+00
  0.00000000E+00  0.00000000E+00  0.00000000E+00
  0.00000000E+00  0.00000000E+00  0.00000000E+00
  0.00000000E+00  0.00000000E+00  0.00000000E+00
  0.00000000E+00  0.00000000E+00  0.00000000E+00
  0.00000000E+00  0.00000000E+00  0.00000000E+00
  0.00000000E+00  0.00000000E+00  0.00000000E+00
  0.00000000E+00  0.00000000E+00  0.00000000E+00
  0.00000000E+00  0.00000000E+00  0.00000000E+00
  0.00000000E+00  0.00000000E+00  0.00000000E+00
  0.00000000E+00  0.00000000E+00  0.00000000E+00
  0.00000000E+00  0.00000000E+00  0.00000000E+00
  0.00000000E+00  0.00000000E+00  0.00000000E+00
  0.00000000E+00  0.00000000E+00  0.00000000E+00
  0.00000000E+00  0.00000000E+00  0.00000000E+00
  0.00000000E+00  0.00000000E+00  0.00000000E+00
  0.00000000E+00  0.00000000E+00  0.00000000E+00
  0.00000000E+00  0.00000000E+00  0.00000000E+00
  0.00000000E+00  0.00000000E+00  0.00000000E+00
  0.00000000E+00  0.00000000E+00  0.00000000E+00
  0.00000000E+00  0.00000000E+00  0.00000000E+00
  0.00000000E+00  0.00000000E+00  0.00000000E+00
  0.00000000E+00  0.00000000E+00  0.00000000E+00
  0.00000000E+00  0.00000000E+00  0.00000000E+00
  0.00000000E+00  0.00000000E+00  0.00000000E+00
  0.00000000E+00  0.00000000E+00  0.00000000E+00
  0.00000000E+00  0.00000000E+00  0.00000000E+00
  0.00000000E+00  0.00000000E+00  0.00000000E+00
  0.00000000E+00  0.00000000E+00  0.00000000E+00
  0.00000000E+00  0.00000000E+00  0.00000000E+00
  0.00000000E+00  0.00000000E+00  0.00000000E+00
  0.00000000E+00  0.00000000E+00  0.00000000E+00
  0.00000000E+00  0.00000000E+00  0.00000000E+00
