Sodilite                                
   1.00000000000000     
     9.2275044210140500   -0.0129435668428895    0.0144262531916502
    -0.0129511227181642    9.2278560206235447    0.0353212208227883
     0.0144348791700467    0.0353364142973287    9.2274302513881512
   O    Na   Al   Si   Cl   K 
    24     3     6     6     2     5
Direct
  0.1379397845896933  0.4648018955911205  0.1423794983501076
  0.8528792670073200  0.5452854080152183  0.1604127364373100
  0.8672997253136731  0.4682585015292267  0.8514955794623632
  0.1545898949192888  0.5383241027032215  0.8401696849341975
  0.1641508905969210  0.1506262957297751  0.4604867135083595
  0.1489912321603066  0.8658378500153380  0.5365515388910068
  0.8442605789586953  0.8492889854486269  0.4560964494648652
  0.8587508082140805  0.1379101445005256  0.5299696459783637
  0.4676891546493982  0.1493090316167049  0.1372717692158828
  0.5375342230509403  0.1586356164960215  0.8495713868333942
  0.4681307647659853  0.8528382747090705  0.8621750781518459
  0.5481349727674719  0.8430899413640169  0.1486206367405277
  0.9692765693435343  0.6354836206823669  0.6419618644598990
  0.0444077224767922  0.3479893822979551  0.6604546805430384
  0.9681556514087766  0.3677963018253599  0.3535918635016163
  0.0503590973348110  0.6528150012280647  0.3380591353468591
  0.6428302970620448  0.6498529953519359  0.9623263160250529
  0.3578932393809783  0.6574347832606176  0.0451021026673455
  0.3602741909975193  0.3495433366264967  0.9592993847873902
  0.6487060071086310  0.3474645541557034  0.0334914821960725
  0.6597646838687802  0.9646251165428723  0.6437307946596764
  0.6531263970354798  0.0383123316547104  0.3583313343633802
  0.3493050529061534  0.9568042807872911  0.3537219602334691
  0.3519578794817246  0.0398494280040578  0.6412511691037096
  0.7979855974601691  0.7975674736460795  0.2036536324346469
  0.3067233864587669  0.3090206361842568  0.6911964015588051
  0.3028313687460722  0.6988278568692968  0.3026688364047781
  0.2550582014812443  0.5035289587326949 -0.0024487239150330
  0.7555267295152237  0.5028463306138596  0.0014758609358293
  0.0088120394339558  0.2521581966470954  0.4994070124023713
  0.0044648030672053  0.7511431308847876  0.4939768429176922
  0.5045814993882723 -0.0014410891090144  0.2486532180781160
  0.5052032704223083  0.0022688531574420  0.7482468467009258
  0.2546004321724979  0.0028992854578943  0.4973990439799471
  0.7550955731656140 -0.0020067661968923  0.4968107458551754
  0.5042976317641088  0.2516801876308033 -0.0042031325752394
  0.5046775848212182  0.7511625558083710  0.0035592862390104
  0.0034737518620949  0.5073167197767080  0.2486131452727509
  0.0090750276331744  0.4987373334509694  0.7480768997958053
 -0.0330468646325611 -0.0367617905513442  0.0368449364961621
  0.4359057371078184  0.5039085433294316  0.4962622399530055
  0.1744392991246068  0.1749680246376921  0.1706506225906857
  0.8307567542267711  0.1719853757079255  0.8267885535822442
  0.1749706662292314  0.8285666341925393  0.8261323008240083
  0.6694784552772556  0.6675285403284427  0.6686155426421784
  0.6686809698759507  0.3319178286646634  0.3310970819704043
 
  0.00000000E+00  0.00000000E+00  0.00000000E+00
  0.00000000E+00  0.00000000E+00  0.00000000E+00
  0.00000000E+00  0.00000000E+00  0.00000000E+00
  0.00000000E+00  0.00000000E+00  0.00000000E+00
  0.00000000E+00  0.00000000E+00  0.00000000E+00
  0.00000000E+00  0.00000000E+00  0.00000000E+00
  0.00000000E+00  0.00000000E+00  0.00000000E+00
  0.00000000E+00  0.00000000E+00  0.00000000E+00
  0.00000000E+00  0.00000000E+00  0.00000000E+00
  0.00000000E+00  0.00000000E+00  0.00000000E+00
  0.00000000E+00  0.00000000E+00  0.00000000E+00
  0.00000000E+00  0.00000000E+00  0.00000000E+00
  0.00000000E+00  0.00000000E+00  0.00000000E+00
  0.00000000E+00  0.00000000E+00  0.00000000E+00
  0.00000000E+00  0.00000000E+00  0.00000000E+00
  0.00000000E+00  0.00000000E+00  0.00000000E+00
  0.00000000E+00  0.00000000E+00  0.00000000E+00
  0.00000000E+00  0.00000000E+00  0.00000000E+00
  0.00000000E+00  0.00000000E+00  0.00000000E+00
  0.00000000E+00  0.00000000E+00  0.00000000E+00
  0.00000000E+00  0.00000000E+00  0.00000000E+00
  0.00000000E+00  0.00000000E+00  0.00000000E+00
  0.00000000E+00  0.00000000E+00  0.00000000E+00
  0.00000000E+00  0.00000000E+00  0.00000000E+00
  0.00000000E+00  0.00000000E+00  0.00000000E+00
  0.00000000E+00  0.00000000E+00  0.00000000E+00
  0.00000000E+00  0.00000000E+00  0.00000000E+00
  0.00000000E+00  0.00000000E+00  0.00000000E+00
  0.00000000E+00  0.00000000E+00  0.00000000E+00
  0.00000000E+00  0.00000000E+00  0.00000000E+00
  0.00000000E+00  0.00000000E+00  0.00000000E+00
  0.00000000E+00  0.00000000E+00  0.00000000E+00
  0.00000000E+00  0.00000000E+00  0.00000000E+00
  0.00000000E+00  0.00000000E+00  0.00000000E+00
  0.00000000E+00  0.00000000E+00  0.00000000E+00
  0.00000000E+00  0.00000000E+00  0.00000000E+00
  0.00000000E+00  0.00000000E+00  0.00000000E+00
  0.00000000E+00  0.00000000E+00  0.00000000E+00
  0.00000000E+00  0.00000000E+00  0.00000000E+00
  0.00000000E+00  0.00000000E+00  0.00000000E+00
  0.00000000E+00  0.00000000E+00  0.00000000E+00
  0.00000000E+00  0.00000000E+00  0.00000000E+00
  0.00000000E+00  0.00000000E+00  0.00000000E+00
  0.00000000E+00  0.00000000E+00  0.00000000E+00
  0.00000000E+00  0.00000000E+00  0.00000000E+00
  0.00000000E+00  0.00000000E+00  0.00000000E+00
