Sodilite                                
   1.00000000000000     
     9.1008840747338180   -0.0113503080710084    0.0463165592065442
    -0.0113680347345193    9.1022629854143986   -0.0118555113739641
     0.0463068559974659   -0.0118428757279154    9.0986113892744065
   O    Na   Al   Si   Cl   K 
    24     5     6     6     2     3
Direct
  0.1354094125197383  0.4483731633810816  0.1461848036578056
  0.8528802884821259  0.5569322697117084  0.1539454014959819
  0.8620394947810781  0.4576015205208742  0.8511614192239845
  0.1459026866217957  0.5576145345770486  0.8432585905220356
  0.1533659484899479  0.1486881848965383  0.4426813196814224
  0.1470861137057665  0.8662918220589215  0.5499739986903952
  0.8407050730689423  0.8558716643468274  0.4453371967716325
  0.8542726240837847  0.1387063645373199  0.5452846357679232
  0.4404882305187047  0.1601404509580336  0.1445934112745058
  0.5467305034302583  0.1496767909051760  0.8640947856575959
  0.4473385828711312  0.8480890677561868  0.8512482648211850
  0.5487215397546903  0.8576235246510232  0.1368343321109878
  0.9537805734725481  0.6451606392688765  0.6482103555766007
  0.0522766676720148  0.3606010959352616  0.6509393876600637
  0.9433246657345287  0.3616350458198280  0.3471414576800656
  0.0477319248532268  0.6432963606464620  0.3475855767770472
  0.6404225431380621  0.6558323081015049  0.9521840645526249
  0.3570712778849031  0.6549973642764202  0.0478615981919606
  0.3574853849582011  0.3539261632972584  0.9450522347696296
  0.6402175184471968  0.3514710277083754  0.0517993676173351
  0.6387716242953327  0.9614255596185606  0.6282991687564988
  0.6613957323241866  0.0579229537087246  0.3433498365599227
  0.3603923145483492  0.9575071686776400  0.3711651071479289
  0.3340614594257538  0.0593664233628370  0.6528092802885834
  0.1877212986509932  0.1899644674562265  0.1892900194958487
  0.8135706133297840  0.8162681266405355  0.1856409488271564
  0.1873063070931309  0.8165467452239834  0.8150008973609953
  0.3052137364555291  0.3104511545842940  0.6940095931725426
  0.6927061304826042  0.3092391627649153  0.3049805548792754
  0.2478983540927490  0.5049241002515805 -0.0025697660159482
  0.7482367014894851  0.5051685089314216  0.0006364760436108
  0.0003361002236104  0.2545997258562408  0.4968340380395226
 -0.0022447714682105  0.7557315370687361  0.4965315172320223
  0.5003391978863048  0.0092058030145911  0.2483627357788682
  0.4931334204370246  0.0064404890728327  0.7478824455617081
  0.2484665209747186  0.0087636036271750  0.5026131295061285
  0.7482100425464074  0.0049028832240639  0.4913908133854095
  0.4962315199353594  0.2546118021973723  0.0009535626747804
  0.4976580783357045  0.7554529151210322 -0.0027629708665928
 -0.0043096097968152  0.5035502135457395  0.2482529319320599
  0.0024507630368723  0.5054865117049048  0.7481893363528413
  0.0351309323311345 -0.0299126815522858  0.0354886957096466
  0.4984625400285083  0.4239001494023513  0.4986413663925766
  0.8424340271575196  0.1587782407817113  0.8414789138889404
  0.6597922368576289  0.6630472254959944  0.6583267224781397
  0.3393836748376881  0.6641278468640941  0.3398324429167519
 
  0.00000000E+00  0.00000000E+00  0.00000000E+00
  0.00000000E+00  0.00000000E+00  0.00000000E+00
  0.00000000E+00  0.00000000E+00  0.00000000E+00
  0.00000000E+00  0.00000000E+00  0.00000000E+00
  0.00000000E+00  0.00000000E+00  0.00000000E+00
  0.00000000E+00  0.00000000E+00  0.00000000E+00
  0.00000000E+00  0.00000000E+00  0.00000000E+00
  0.00000000E+00  0.00000000E+00  0.00000000E+00
  0.00000000E+00  0.00000000E+00  0.00000000E+00
  0.00000000E+00  0.00000000E+00  0.00000000E+00
  0.00000000E+00  0.00000000E+00  0.00000000E+00
  0.00000000E+00  0.00000000E+00  0.00000000E+00
  0.00000000E+00  0.00000000E+00  0.00000000E+00
  0.00000000E+00  0.00000000E+00  0.00000000E+00
  0.00000000E+00  0.00000000E+00  0.00000000E+00
  0.00000000E+00  0.00000000E+00  0.00000000E+00
  0.00000000E+00  0.00000000E+00  0.00000000E+00
  0.00000000E+00  0.00000000E+00  0.00000000E+00
  0.00000000E+00  0.00000000E+00  0.00000000E+00
  0.00000000E+00  0.00000000E+00  0.00000000E+00
  0.00000000E+00  0.00000000E+00  0.00000000E+00
  0.00000000E+00  0.00000000E+00  0.00000000E+00
  0.00000000E+00  0.00000000E+00  0.00000000E+00
  0.00000000E+00  0.00000000E+00  0.00000000E+00
  0.00000000E+00  0.00000000E+00  0.00000000E+00
  0.00000000E+00  0.00000000E+00  0.00000000E+00
  0.00000000E+00  0.00000000E+00  0.00000000E+00
  0.00000000E+00  0.00000000E+00  0.00000000E+00
  0.00000000E+00  0.00000000E+00  0.00000000E+00
  0.00000000E+00  0.00000000E+00  0.00000000E+00
  0.00000000E+00  0.00000000E+00  0.00000000E+00
  0.00000000E+00  0.00000000E+00  0.00000000E+00
  0.00000000E+00  0.00000000E+00  0.00000000E+00
  0.00000000E+00  0.00000000E+00  0.00000000E+00
  0.00000000E+00  0.00000000E+00  0.00000000E+00
  0.00000000E+00  0.00000000E+00  0.00000000E+00
  0.00000000E+00  0.00000000E+00  0.00000000E+00
  0.00000000E+00  0.00000000E+00  0.00000000E+00
  0.00000000E+00  0.00000000E+00  0.00000000E+00
  0.00000000E+00  0.00000000E+00  0.00000000E+00
  0.00000000E+00  0.00000000E+00  0.00000000E+00
  0.00000000E+00  0.00000000E+00  0.00000000E+00
  0.00000000E+00  0.00000000E+00  0.00000000E+00
  0.00000000E+00  0.00000000E+00  0.00000000E+00
  0.00000000E+00  0.00000000E+00  0.00000000E+00
  0.00000000E+00  0.00000000E+00  0.00000000E+00
