Sodilite                                
   1.00000000000000     
     9.1019797952286350   -0.0116578189262783   -0.0110091193146891
    -0.0116470033790729    9.0976671948266485    0.0440041677333298
    -0.0109944929674607    0.0440150891095664    9.0995781798577813
   O    Na   Al   Si   Cl   K 
    24     5     6     6     2     3
Direct
  0.1487139053199708  0.4425667869285491  0.1533228039427215
  0.8663457753488902  0.5499701928512961  0.1470780883670946
  0.8558703605892283  0.4453226328637022  0.8406780024969387
  0.1387044404819711  0.5452957565305764  0.8543226164116214
  0.1601425261227093  0.1445804941853888  0.4404435070435057
  0.1496922619250129  0.8641256759138100  0.5466921227192781
  0.8481076682490140  0.8512202023470646  0.4472415474744990
  0.8576745831971655  0.1368156802093670  0.5487898397319241
  0.4482673657974256  0.1463188294968117  0.1355248953376529
  0.5569429875254989  0.1537482114177165  0.8530113251285484
  0.4575549212130066  0.8509458259048903  0.8618785559428281
  0.5575642957543213  0.8434437390429765  0.1457470707555572
  0.9615203201149531  0.6283107123261490  0.6387963596851177
  0.0579535385591900  0.3433719689435784  0.6613398195571364
  0.9574829545252046  0.3711826122284045  0.3603985177650065
  0.0594295441680874  0.6527777214051336  0.3340738985832462
  0.6451129585604886  0.6481116036674752  0.9538339032555755
  0.3605584830799078  0.6510134642195156  0.0523205042633417
  0.3617651995965959  0.3472128415349037  0.9433050568957396
  0.6433769387132063  0.3474638251871449  0.0478224884985843
  0.6557565599995632  0.9522293362688560  0.6403231150766601
  0.6550801616882589  0.0479555234170038  0.3570015302181071
  0.3540429479215679  0.9450231300494580  0.3575406780198058
  0.3514109069525357  0.0518687837100021  0.6402831602481149
  0.1898165240179735  0.1892282270279945  0.1876937234836317
  0.8165496335468251  0.8150644479726600  0.1871838103557699
  0.8162618864111009  0.1855202650875248  0.8136494224652733
  0.3093348459368692  0.3050706778879441  0.6927224663341967
  0.3105353516010488  0.6940454952772830  0.3053332206393859
  0.2545978821550342  0.4968501284936150  0.0003394945975338
  0.7557102529518944  0.4964845068640211 -0.0022249171332723
  0.0091796738734336  0.2483693533066002  0.5002596110957014
  0.0064224033181686  0.7479006736175086  0.4931790120821663
  0.5049103200040839 -0.0024262853412041  0.2479065418831043
  0.5050736151657031  0.0005074054810095  0.7482465012302839
  0.2546107513463954  0.0009716065646944  0.4962246729916960
  0.7554716652194344 -0.0027487332959810  0.4976063210505617
  0.5035469555494988  0.2482374588235153 -0.0042475271251303
  0.5054441162466663  0.7481801278368349  0.0024108485199537
  0.0087913462409607  0.5025669825085242  0.2484619512461878
  0.0049193419503427  0.4914060491890448  0.7482041614571310
 -0.0299537208275558  0.0354381006899374  0.0350764365685075
  0.4239369350582827  0.4987319180410781  0.4985477983595935
  0.1586658075732758  0.8414580671587130  0.8423877540714785
  0.6630220464963325  0.6583966403055277  0.6598810929754615
  0.6640807607604565  0.3398713358533805  0.3393881954321801
 
  0.00000000E+00  0.00000000E+00  0.00000000E+00
  0.00000000E+00  0.00000000E+00  0.00000000E+00
  0.00000000E+00  0.00000000E+00  0.00000000E+00
  0.00000000E+00  0.00000000E+00  0.00000000E+00
  0.00000000E+00  0.00000000E+00  0.00000000E+00
  0.00000000E+00  0.00000000E+00  0.00000000E+00
  0.00000000E+00  0.00000000E+00  0.00000000E+00
  0.00000000E+00  0.00000000E+00  0.00000000E+00
  0.00000000E+00  0.00000000E+00  0.00000000E+00
  0.00000000E+00  0.00000000E+00  0.00000000E+00
  0.00000000E+00  0.00000000E+00  0.00000000E+00
  0.00000000E+00  0.00000000E+00  0.00000000E+00
  0.00000000E+00  0.00000000E+00  0.00000000E+00
  0.00000000E+00  0.00000000E+00  0.00000000E+00
  0.00000000E+00  0.00000000E+00  0.00000000E+00
  0.00000000E+00  0.00000000E+00  0.00000000E+00
  0.00000000E+00  0.00000000E+00  0.00000000E+00
  0.00000000E+00  0.00000000E+00  0.00000000E+00
  0.00000000E+00  0.00000000E+00  0.00000000E+00
  0.00000000E+00  0.00000000E+00  0.00000000E+00
  0.00000000E+00  0.00000000E+00  0.00000000E+00
  0.00000000E+00  0.00000000E+00  0.00000000E+00
  0.00000000E+00  0.00000000E+00  0.00000000E+00
  0.00000000E+00  0.00000000E+00  0.00000000E+00
  0.00000000E+00  0.00000000E+00  0.00000000E+00
  0.00000000E+00  0.00000000E+00  0.00000000E+00
  0.00000000E+00  0.00000000E+00  0.00000000E+00
  0.00000000E+00  0.00000000E+00  0.00000000E+00
  0.00000000E+00  0.00000000E+00  0.00000000E+00
  0.00000000E+00  0.00000000E+00  0.00000000E+00
  0.00000000E+00  0.00000000E+00  0.00000000E+00
  0.00000000E+00  0.00000000E+00  0.00000000E+00
  0.00000000E+00  0.00000000E+00  0.00000000E+00
  0.00000000E+00  0.00000000E+00  0.00000000E+00
  0.00000000E+00  0.00000000E+00  0.00000000E+00
  0.00000000E+00  0.00000000E+00  0.00000000E+00
  0.00000000E+00  0.00000000E+00  0.00000000E+00
  0.00000000E+00  0.00000000E+00  0.00000000E+00
  0.00000000E+00  0.00000000E+00  0.00000000E+00
  0.00000000E+00  0.00000000E+00  0.00000000E+00
  0.00000000E+00  0.00000000E+00  0.00000000E+00
  0.00000000E+00  0.00000000E+00  0.00000000E+00
  0.00000000E+00  0.00000000E+00  0.00000000E+00
  0.00000000E+00  0.00000000E+00  0.00000000E+00
  0.00000000E+00  0.00000000E+00  0.00000000E+00
  0.00000000E+00  0.00000000E+00  0.00000000E+00
