Sodilite                                
   1.00000000000000     
     9.1326754132416710    0.0136694659395878    0.0136694621374437
     0.0136694621374437    9.1326754132416710   -0.0136694659395878
     0.0136694659395878   -0.0136694621374437    9.1326754132416710
   O    Na   Al   Si   Cl   K 
    24     5     6     6     2     3
Direct
  0.1335545078727799  0.4592763347397679  0.1451747703762089
  0.8483326967931085  0.5461610033379455  0.1613472489936283
  0.8656356780503478  0.4591538053148916  0.8581269484727844
  0.1491223955552255  0.5539182095610525  0.8415126471292754
  0.1418730515272162  0.1343643219496522  0.4591538053148916
  0.1584873528707246  0.8508776044447747  0.5539182095610525
  0.8548252296237911  0.8664454921272199  0.4592763347397678
  0.8386527510063718  0.1516673032068909  0.5461610033379455
  0.4538389966620545  0.1613472489936283  0.1516673032068909
  0.5407236652602321  0.1451747703762089  0.8664454921272199
  0.4460817904389476  0.8415126471292754  0.8508776044447747
  0.5408461946851083  0.8581269484727844  0.1343643219496522
  0.9458497100312249  0.6400173093050457  0.6503154169401082
  0.0504676651667735  0.3580878054289537  0.6557996424363396
  0.9526280260365693  0.3590300210257839  0.3500239514170659
  0.0495449760311366  0.6448224497032967  0.3491106021344513
  0.6419121945710464  0.6557996424363396  0.9495323348332263
  0.3599826906949540  0.6503154169401082  0.0541502899687753
  0.3551775502967032  0.3491106021344513  0.9504550239688633
  0.6409699789742159  0.3500239514170659  0.0473719739634308
  0.6508893978655488  0.9504550239688633  0.6448224497032966
  0.6499760485829341  0.0473719739634308  0.3590300210257839
  0.3442003575636603  0.9495323348332263  0.3580878054289536
  0.3496845830598919  0.0541502899687753  0.6400173093050457
  0.2061009674200293  0.7938990325799713  0.7938990325799713
  0.6854115338258780  0.6875421515361971  0.6865380232414688
  0.3134619767585314  0.3145884661741212  0.6875421515361971
  0.6801013608247460  0.3198986391752539  0.3198986391752539
  0.3124578484638026  0.6865380232414688  0.3145884661741212
  0.2489649404532560  0.5037169957473020 -0.0013011156208140
  0.7478300903712141  0.5038361694712333  0.0034139572366611
 -0.0034139572366611  0.2521699096287852  0.5038361694712333
  0.0013011156208140  0.7510350595467440  0.5037169957473020
  0.4961638305287666  0.0034139572366611  0.2521699096287852
  0.4962830042526977 -0.0013011156208140  0.7510350595467440
  0.2484236925802137 -0.0020638573100611  0.5033239355697516
  0.7479837966078762  0.0036288253145512  0.5029915143375789
  0.4970084856624214  0.2520162033921244  0.0036288253145512
  0.4966760644302478  0.7515763074197861 -0.0020638573100611
 -0.0036288253145512  0.5029915143375789  0.2520162033921244
  0.0020638573100611  0.5033239355697516  0.7515763074197861
  0.0414924390099120 -0.0414924390099120 -0.0414924390099120
  0.4971910099892203  0.5028089900107795  0.5028089900107795
  0.1641065448516629  0.1695122440344316  0.1697250215962754
  0.8302749784037240  0.8358934551483367  0.1695122440344316
  0.8304877559655686  0.1697250215962754  0.8358934551483367
 
  0.00000000E+00  0.00000000E+00  0.00000000E+00
  0.00000000E+00  0.00000000E+00  0.00000000E+00
  0.00000000E+00  0.00000000E+00  0.00000000E+00
  0.00000000E+00  0.00000000E+00  0.00000000E+00
  0.00000000E+00  0.00000000E+00  0.00000000E+00
  0.00000000E+00  0.00000000E+00  0.00000000E+00
  0.00000000E+00  0.00000000E+00  0.00000000E+00
  0.00000000E+00  0.00000000E+00  0.00000000E+00
  0.00000000E+00  0.00000000E+00  0.00000000E+00
  0.00000000E+00  0.00000000E+00  0.00000000E+00
  0.00000000E+00  0.00000000E+00  0.00000000E+00
  0.00000000E+00  0.00000000E+00  0.00000000E+00
  0.00000000E+00  0.00000000E+00  0.00000000E+00
  0.00000000E+00  0.00000000E+00  0.00000000E+00
  0.00000000E+00  0.00000000E+00  0.00000000E+00
  0.00000000E+00  0.00000000E+00  0.00000000E+00
  0.00000000E+00  0.00000000E+00  0.00000000E+00
  0.00000000E+00  0.00000000E+00  0.00000000E+00
  0.00000000E+00  0.00000000E+00  0.00000000E+00
  0.00000000E+00  0.00000000E+00  0.00000000E+00
  0.00000000E+00  0.00000000E+00  0.00000000E+00
  0.00000000E+00  0.00000000E+00  0.00000000E+00
  0.00000000E+00  0.00000000E+00  0.00000000E+00
  0.00000000E+00  0.00000000E+00  0.00000000E+00
  0.00000000E+00  0.00000000E+00  0.00000000E+00
  0.00000000E+00  0.00000000E+00  0.00000000E+00
  0.00000000E+00  0.00000000E+00  0.00000000E+00
  0.00000000E+00  0.00000000E+00  0.00000000E+00
  0.00000000E+00  0.00000000E+00  0.00000000E+00
  0.00000000E+00  0.00000000E+00  0.00000000E+00
  0.00000000E+00  0.00000000E+00  0.00000000E+00
  0.00000000E+00  0.00000000E+00  0.00000000E+00
  0.00000000E+00  0.00000000E+00  0.00000000E+00
  0.00000000E+00  0.00000000E+00  0.00000000E+00
  0.00000000E+00  0.00000000E+00  0.00000000E+00
  0.00000000E+00  0.00000000E+00  0.00000000E+00
  0.00000000E+00  0.00000000E+00  0.00000000E+00
  0.00000000E+00  0.00000000E+00  0.00000000E+00
  0.00000000E+00  0.00000000E+00  0.00000000E+00
  0.00000000E+00  0.00000000E+00  0.00000000E+00
  0.00000000E+00  0.00000000E+00  0.00000000E+00
  0.00000000E+00  0.00000000E+00  0.00000000E+00
  0.00000000E+00  0.00000000E+00  0.00000000E+00
  0.00000000E+00  0.00000000E+00  0.00000000E+00
  0.00000000E+00  0.00000000E+00  0.00000000E+00
  0.00000000E+00  0.00000000E+00  0.00000000E+00
