Sodilite                                
   1.00000000000000     
     9.1569768056992764    0.0000000000000000   -0.0592827850763702
     0.0000000000000000    9.1616300845887633    0.0000000000000000
    -0.0592827850763702    0.0000000000000000    9.1569768056992764
   O    Na   Al   Si   Cl   K 
    24     4     6     6     2     4
Direct
  0.1546057585129403  0.4454439670807561  0.1630796404346169
  0.8695956740689302  0.5360344279848248  0.1413713295521093
  0.8453942414870593  0.4454439670807561  0.8369203595653829
  0.1304043259310699  0.5360344279848248  0.8586286704478909
  0.1538266364930104  0.1388317579394640  0.4513665872539759
  0.1501408061296300  0.8542735597171750  0.5430471445682638
  0.8498591938703700  0.8542735597171750  0.4569528554317362
  0.8461733635069895  0.1388317579394640  0.5486334127460245
  0.4532385725925058  0.1467158819641143  0.1433055038592727
  0.5467614274074946  0.1467158819641143  0.8566944961407278
  0.4552552520858269  0.8428956028777151  0.8583363689111148
  0.5447447479141729  0.8428956028777151  0.1416636310888849
  0.9513665872539755  0.6388317579394639  0.6538266364930105
  0.0430471445682637  0.3542735597171746  0.6501408061296300
  0.9569528554317362  0.3542735597171746  0.3498591938703701
  0.0486334127460243  0.6388317579394639  0.3461733635069895
  0.6433055038592722  0.6467158819641143  0.9532385725925054
  0.3566944961407270  0.6467158819641143  0.0467614274074941
  0.3583363689111154  0.3428956028777151  0.9552552520858271
  0.6416636310888852  0.3428956028777151  0.0447447479141730
  0.6630796404346171  0.9454439670807567  0.6546057585129407
  0.6413713295521091  0.0360344279848245  0.3695956740689300
  0.3369203595653830  0.9454439670807567  0.3453942414870598
  0.3586286704478908  0.0360344279848245  0.6304043259310698
  0.1946980906907965  0.1903275339804653  0.1932326132903623
  0.8053019093092040  0.1903275339804653  0.8067673867096377
  0.6932326132903623  0.6903275339804649  0.6946980906907960
  0.3067673867096378  0.6903275339804649  0.3053019093092034
  0.2495716517102903  0.4916841104154940  0.0036164613313409
  0.7504283482897096  0.4916841104154940 -0.0036164613313409
 -0.0000000000000000  0.2431071197773189  0.5000000000000000
 -0.0000000000000000  0.7431071197773192  0.5000000000000000
  0.4963835386686589 -0.0083158895845057  0.2504283482897097
  0.5036164613313411 -0.0083158895845057  0.7495716517102904
  0.2500754304319499 -0.0074416570431482  0.4939376029499323
  0.7499245695680502 -0.0074416570431482  0.5060623970500669
  0.5000000000000000  0.2434005500068696 -0.0000000000000000
  0.5000000000000000  0.7434005500068694 -0.0000000000000000
  0.0060623970500674  0.4925583429568519  0.2499245695680505
 -0.0060623970500674  0.4925583429568519  0.7500754304319498
 -0.0000000000000000  0.0691641392519798 -0.0000000000000000
  0.5000000000000000  0.5691641392519796  0.5000000000000000
  0.8370687620939209  0.8333989105650558  0.1642606471204924
  0.1629312379060788  0.8333989105650558  0.8357393528795074
  0.3357393528795075  0.3333989105650560  0.6629312379060791
  0.6642606471204926  0.3333989105650560  0.3370687620939211
 
  0.00000000E+00  0.00000000E+00  0.00000000E+00
  0.00000000E+00  0.00000000E+00  0.00000000E+00
  0.00000000E+00  0.00000000E+00  0.00000000E+00
  0.00000000E+00  0.00000000E+00  0.00000000E+00
  0.00000000E+00  0.00000000E+00  0.00000000E+00
  0.00000000E+00  0.00000000E+00  0.00000000E+00
  0.00000000E+00  0.00000000E+00  0.00000000E+00
  0.00000000E+00  0.00000000E+00  0.00000000E+00
  0.00000000E+00  0.00000000E+00  0.00000000E+00
  0.00000000E+00  0.00000000E+00  0.00000000E+00
  0.00000000E+00  0.00000000E+00  0.00000000E+00
  0.00000000E+00  0.00000000E+00  0.00000000E+00
  0.00000000E+00  0.00000000E+00  0.00000000E+00
  0.00000000E+00  0.00000000E+00  0.00000000E+00
  0.00000000E+00  0.00000000E+00  0.00000000E+00
  0.00000000E+00  0.00000000E+00  0.00000000E+00
  0.00000000E+00  0.00000000E+00  0.00000000E+00
  0.00000000E+00  0.00000000E+00  0.00000000E+00
  0.00000000E+00  0.00000000E+00  0.00000000E+00
  0.00000000E+00  0.00000000E+00  0.00000000E+00
  0.00000000E+00  0.00000000E+00  0.00000000E+00
  0.00000000E+00  0.00000000E+00  0.00000000E+00
  0.00000000E+00  0.00000000E+00  0.00000000E+00
  0.00000000E+00  0.00000000E+00  0.00000000E+00
  0.00000000E+00  0.00000000E+00  0.00000000E+00
  0.00000000E+00  0.00000000E+00  0.00000000E+00
  0.00000000E+00  0.00000000E+00  0.00000000E+00
  0.00000000E+00  0.00000000E+00  0.00000000E+00
  0.00000000E+00  0.00000000E+00  0.00000000E+00
  0.00000000E+00  0.00000000E+00  0.00000000E+00
  0.00000000E+00  0.00000000E+00  0.00000000E+00
  0.00000000E+00  0.00000000E+00  0.00000000E+00
  0.00000000E+00  0.00000000E+00  0.00000000E+00
  0.00000000E+00  0.00000000E+00  0.00000000E+00
  0.00000000E+00  0.00000000E+00  0.00000000E+00
  0.00000000E+00  0.00000000E+00  0.00000000E+00
  0.00000000E+00  0.00000000E+00  0.00000000E+00
  0.00000000E+00  0.00000000E+00  0.00000000E+00
  0.00000000E+00  0.00000000E+00  0.00000000E+00
  0.00000000E+00  0.00000000E+00  0.00000000E+00
  0.00000000E+00  0.00000000E+00  0.00000000E+00
  0.00000000E+00  0.00000000E+00  0.00000000E+00
  0.00000000E+00  0.00000000E+00  0.00000000E+00
  0.00000000E+00  0.00000000E+00  0.00000000E+00
  0.00000000E+00  0.00000000E+00  0.00000000E+00
  0.00000000E+00  0.00000000E+00  0.00000000E+00
