Sodilite                                
   1.00000000000000     
     9.1326618083889635   -0.0141895937306730   -0.0141895934740454
    -0.0141895934740453    9.1326618083889635   -0.0141895937306730
    -0.0141895937306730   -0.0141895934740453    9.1326618083889635
   O    Na   Al   Si   Cl   K 
    24     5     6     6     2     3
Direct
  0.1411092707147468  0.4525865219982284  0.1500948510695591
  0.8553348715939882  0.5495135002077113  0.1507496512358276
  0.8598695049523487  0.4457262094332838  0.8495522958252707
  0.1418231006500233  0.5504866165942707  0.8443958109826594
  0.1500948510695591  0.1411092707147468  0.4525865219982284
  0.1507496512358276  0.8553348715939882  0.5495135002077113
  0.8495522958252707  0.8598695049523487  0.4457262094332838
  0.8443958109826594  0.1418231006500233  0.5504866165942707
  0.4525865219982284  0.1500948510695591  0.1411092707147468
  0.5495135002077113  0.1507496512358276  0.8553348715939882
  0.4457262094332838  0.8495522958252707  0.8598695049523487
  0.5504866165942707  0.8443958109826594  0.1418231006500233
  0.9461997569566094  0.6492266518993439  0.6585580937588503
  0.0409314701128471  0.3657849469104265  0.6418114799968310
  0.9538100608132881  0.3483329124060104  0.3386300612069260
  0.0406850356085263  0.6334792642284551  0.3548964981643892
  0.6492266518993439  0.6585580937588503  0.9461997569566094
  0.3657849469104265  0.6418114799968310  0.0409314701128471
  0.3483329124060104  0.3386300612069260  0.9538100608132881
  0.6334792642284551  0.3548964981643892  0.0406850356085263
  0.6585580937588503  0.9461997569566094  0.6492266518993439
  0.6418114799968310  0.0409314701128471  0.3657849469104265
  0.3386300612069260  0.9538100608132881  0.3483329124060104
  0.3548964981643892  0.0406850356085263  0.6334792642284551
  0.1799626438203207  0.1799626438203207  0.1799626438203207
  0.8135180187892395  0.8124896032586449  0.1850899816895256
  0.8124896032586449  0.1850899816895256  0.8135180187892395
  0.1850899816895256  0.8135180187892395  0.8124896032586449
  0.7062408337862458  0.7062408337862458  0.7062408337862458
  0.2478775204701029  0.4965870105897329 -0.0037707690991785
  0.7489862979137791  0.5012541673570333 -0.0037634274670547
 -0.0037707690991785  0.2478775204701029  0.4965870105897329
 -0.0037634274670547  0.7489862979137791  0.5012541673570332
  0.4965870105897329 -0.0037707690991785  0.2478775204701029
  0.5012541673570333 -0.0037634274670547  0.7489862979137791
  0.2479588334138595 -0.0029272074245194  0.4963231371494008
  0.7484695705746794 -0.0033327919122037  0.5020859847926504
  0.4963231371494008  0.2479588334138595 -0.0029272074245194
  0.5020859847926504  0.7484695705746794 -0.0033327919122037
 -0.0029272074245194  0.4963231371494008  0.2479588334138595
 -0.0033327919122037  0.5020859847926504  0.7484695705746794
 -0.0032191646299960 -0.0032191646299960 -0.0032191646299960
  0.5415993740110826  0.5415993740110826  0.5415993740110826
  0.3304083463524876  0.3305215112517010  0.6640520879920456
  0.6640520879920456  0.3304083463524876  0.3305215112517010
  0.3305215112517010  0.6640520879920456  0.3304083463524876
 
  0.00000000E+00  0.00000000E+00  0.00000000E+00
  0.00000000E+00  0.00000000E+00  0.00000000E+00
  0.00000000E+00  0.00000000E+00  0.00000000E+00
  0.00000000E+00  0.00000000E+00  0.00000000E+00
  0.00000000E+00  0.00000000E+00  0.00000000E+00
  0.00000000E+00  0.00000000E+00  0.00000000E+00
  0.00000000E+00  0.00000000E+00  0.00000000E+00
  0.00000000E+00  0.00000000E+00  0.00000000E+00
  0.00000000E+00  0.00000000E+00  0.00000000E+00
  0.00000000E+00  0.00000000E+00  0.00000000E+00
  0.00000000E+00  0.00000000E+00  0.00000000E+00
  0.00000000E+00  0.00000000E+00  0.00000000E+00
  0.00000000E+00  0.00000000E+00  0.00000000E+00
  0.00000000E+00  0.00000000E+00  0.00000000E+00
  0.00000000E+00  0.00000000E+00  0.00000000E+00
  0.00000000E+00  0.00000000E+00  0.00000000E+00
  0.00000000E+00  0.00000000E+00  0.00000000E+00
  0.00000000E+00  0.00000000E+00  0.00000000E+00
  0.00000000E+00  0.00000000E+00  0.00000000E+00
  0.00000000E+00  0.00000000E+00  0.00000000E+00
  0.00000000E+00  0.00000000E+00  0.00000000E+00
  0.00000000E+00  0.00000000E+00  0.00000000E+00
  0.00000000E+00  0.00000000E+00  0.00000000E+00
  0.00000000E+00  0.00000000E+00  0.00000000E+00
  0.00000000E+00  0.00000000E+00  0.00000000E+00
  0.00000000E+00  0.00000000E+00  0.00000000E+00
  0.00000000E+00  0.00000000E+00  0.00000000E+00
  0.00000000E+00  0.00000000E+00  0.00000000E+00
  0.00000000E+00  0.00000000E+00  0.00000000E+00
  0.00000000E+00  0.00000000E+00  0.00000000E+00
  0.00000000E+00  0.00000000E+00  0.00000000E+00
  0.00000000E+00  0.00000000E+00  0.00000000E+00
  0.00000000E+00  0.00000000E+00  0.00000000E+00
  0.00000000E+00  0.00000000E+00  0.00000000E+00
  0.00000000E+00  0.00000000E+00  0.00000000E+00
  0.00000000E+00  0.00000000E+00  0.00000000E+00
  0.00000000E+00  0.00000000E+00  0.00000000E+00
  0.00000000E+00  0.00000000E+00  0.00000000E+00
  0.00000000E+00  0.00000000E+00  0.00000000E+00
  0.00000000E+00  0.00000000E+00  0.00000000E+00
  0.00000000E+00  0.00000000E+00  0.00000000E+00
  0.00000000E+00  0.00000000E+00  0.00000000E+00
  0.00000000E+00  0.00000000E+00  0.00000000E+00
  0.00000000E+00  0.00000000E+00  0.00000000E+00
  0.00000000E+00  0.00000000E+00  0.00000000E+00
  0.00000000E+00  0.00000000E+00  0.00000000E+00
