Sodilite                                
   1.00000000000000     
     9.1618396933618662    0.0000000000000000    0.0000000000000000
     0.0000000000000000    9.1577041697652675   -0.0591016123301394
     0.0000000000000000   -0.0591016123301394    9.1577041697652675
   O    Na   Al   Si   Cl   K 
    24     4     6     6     2     4
Direct
  0.1388326942971345  0.4514227538124797  0.1538660468024900
  0.8542334117530649  0.5429845768291169  0.1501417087249422
  0.8542334117530649  0.4570154231708833  0.8498582912750574
  0.1388326942971345  0.5485772461875198  0.8461339531975103
  0.1467201906570482  0.1433115322692680  0.4532747028516577
  0.1467201906570482  0.8566884677307318  0.5467252971483425
  0.8428983517559255  0.8583294318815677  0.4553142147440846
  0.8428983517559255  0.1416705681184324  0.5446857852559155
  0.4454549171911016  0.1631252097202039  0.1546252496151599
  0.5359365258762678  0.1413190085445494  0.8695878192490859
  0.4454549171911016  0.8368747902797963  0.8453747503848400
  0.5359365258762678  0.8586809914554506  0.1304121807509139
  0.9454549171911018  0.6546252496151600  0.6631252097202037
  0.0359365258762681  0.3695878192490862  0.6413190085445494
  0.9454549171911018  0.3453747503848402  0.3368747902797962
  0.0359365258762681  0.6304121807509141  0.3586809914554507
  0.6388326942971341  0.6538660468024897  0.9514227538124802
  0.3542334117530645  0.6501417087249426  0.0429845768291167
  0.3542334117530645  0.3498582912750577  0.9570154231708831
  0.6388326942971341  0.3461339531975101  0.0485772461875204
  0.6467201906570482  0.9532747028516575  0.6433115322692682
  0.6467201906570482  0.0467252971483424  0.3566884677307322
  0.3428983517559258  0.9553142147440845  0.3583294318815673
  0.3428983517559258  0.0446857852559155  0.6416705681184323
  0.1904601152276384  0.1932430999216348  0.1947509340495029
  0.1904601152276384  0.8067569000783653  0.8052490659504974
  0.6904601152276387  0.6947509340495026  0.6932430999216347
  0.6904601152276387  0.3052490659504969  0.3067569000783650
  0.2430673727524800  0.5000000000000000  0.0000000000000000
  0.7430673727524806  0.5000000000000000  0.0000000000000000
 -0.0083208193809704  0.2504340679421106  0.4963249697439742
 -0.0083208193809704  0.7495659320578901  0.5036750302560260
  0.4916791806190297  0.0036750302560259  0.2495659320578895
  0.4916791806190297 -0.0036750302560259  0.7504340679421099
  0.2434064708055051  0.0000000000000000  0.5000000000000000
  0.7434064708055058  0.0000000000000000  0.5000000000000000
  0.4925376335498239  0.2499014845955640  0.0060357204690185
  0.4925376335498239  0.7500985154044362 -0.0060357204690185
 -0.0074623664501762  0.4939642795309814  0.2500985154044359
 -0.0074623664501762  0.5060357204690189  0.7499014845955638
  0.0692293401332840  0.0000000000000000  0.0000000000000000
  0.5692293401332832  0.5000000000000000  0.5000000000000000
  0.8333953872273311  0.8357859555308175  0.1629998924878631
  0.8333953872273311  0.1642140444691824  0.8370001075121370
  0.3333953872273308  0.3370001075121368  0.6642140444691825
  0.3333953872273308  0.6629998924878630  0.3357859555308177
 
  0.00000000E+00  0.00000000E+00  0.00000000E+00
  0.00000000E+00  0.00000000E+00  0.00000000E+00
  0.00000000E+00  0.00000000E+00  0.00000000E+00
  0.00000000E+00  0.00000000E+00  0.00000000E+00
  0.00000000E+00  0.00000000E+00  0.00000000E+00
  0.00000000E+00  0.00000000E+00  0.00000000E+00
  0.00000000E+00  0.00000000E+00  0.00000000E+00
  0.00000000E+00  0.00000000E+00  0.00000000E+00
  0.00000000E+00  0.00000000E+00  0.00000000E+00
  0.00000000E+00  0.00000000E+00  0.00000000E+00
  0.00000000E+00  0.00000000E+00  0.00000000E+00
  0.00000000E+00  0.00000000E+00  0.00000000E+00
  0.00000000E+00  0.00000000E+00  0.00000000E+00
  0.00000000E+00  0.00000000E+00  0.00000000E+00
  0.00000000E+00  0.00000000E+00  0.00000000E+00
  0.00000000E+00  0.00000000E+00  0.00000000E+00
  0.00000000E+00  0.00000000E+00  0.00000000E+00
  0.00000000E+00  0.00000000E+00  0.00000000E+00
  0.00000000E+00  0.00000000E+00  0.00000000E+00
  0.00000000E+00  0.00000000E+00  0.00000000E+00
  0.00000000E+00  0.00000000E+00  0.00000000E+00
  0.00000000E+00  0.00000000E+00  0.00000000E+00
  0.00000000E+00  0.00000000E+00  0.00000000E+00
  0.00000000E+00  0.00000000E+00  0.00000000E+00
  0.00000000E+00  0.00000000E+00  0.00000000E+00
  0.00000000E+00  0.00000000E+00  0.00000000E+00
  0.00000000E+00  0.00000000E+00  0.00000000E+00
  0.00000000E+00  0.00000000E+00  0.00000000E+00
  0.00000000E+00  0.00000000E+00  0.00000000E+00
  0.00000000E+00  0.00000000E+00  0.00000000E+00
  0.00000000E+00  0.00000000E+00  0.00000000E+00
  0.00000000E+00  0.00000000E+00  0.00000000E+00
  0.00000000E+00  0.00000000E+00  0.00000000E+00
  0.00000000E+00  0.00000000E+00  0.00000000E+00
  0.00000000E+00  0.00000000E+00  0.00000000E+00
  0.00000000E+00  0.00000000E+00  0.00000000E+00
  0.00000000E+00  0.00000000E+00  0.00000000E+00
  0.00000000E+00  0.00000000E+00  0.00000000E+00
  0.00000000E+00  0.00000000E+00  0.00000000E+00
  0.00000000E+00  0.00000000E+00  0.00000000E+00
  0.00000000E+00  0.00000000E+00  0.00000000E+00
  0.00000000E+00  0.00000000E+00  0.00000000E+00
  0.00000000E+00  0.00000000E+00  0.00000000E+00
  0.00000000E+00  0.00000000E+00  0.00000000E+00
  0.00000000E+00  0.00000000E+00  0.00000000E+00
  0.00000000E+00  0.00000000E+00  0.00000000E+00
