Sodilite                                
   1.00000000000000     
     9.2660473365257641    0.0002132994577674   -0.0002132994577674
     0.0002129014999147    9.2771357786859561   -0.0156515039011559
    -0.0002129014999147   -0.0156515039011558    9.2771357786859561
   O    Na   Al   Si   Cl   K 
    24     2     6     6     2     6
Direct
  0.1488319921494762  0.4584236439447867  0.1624294761565846
  0.8633662508006987  0.5320149518070745  0.1436556976062080
  0.8459323793181073  0.4691373036012692  0.8406346981932006
  0.1349215237329660  0.5267955218051457  0.8537445725097107
  0.1577786908425177  0.1521366590697981  0.4596633590172118
  0.1431841354637921  0.8635256477849944  0.5260956085121160
  0.8357825655946748  0.8499185928651688  0.4680195911226818
  0.8529783439924663  0.1355942904730665  0.5325303818026629
  0.4548667697600815  0.1573183153917168  0.1483019467400653
  0.5284610320396744  0.1499527246798662  0.8621309583613553
  0.4699612909250593  0.8428477563402326  0.8515789681299979
  0.5280903702560471  0.8518873533163657  0.1402564868476983
  0.9699612909250593  0.6484210318700022  0.6571522436597674
  0.0280903702560476  0.3597435131523017  0.6481126466836343
  0.9548667697600823  0.3516980532599346  0.3426816846082832
  0.0284610320396748  0.6378690416386447  0.3500472753201340
  0.6349215237329657  0.6462554274902893  0.9732044781948543
  0.3459323793181072  0.6593653018067994  0.0308626963987307
  0.3633662508006999  0.3563443023937919  0.9679850481929255
  0.6488319921494765  0.3375705238434154  0.0415763560552132
  0.6431841354637922  0.9739043914878840  0.6364743522150056
  0.6577786908425174  0.0403366409827881  0.3478633409302019
  0.3529783439924663  0.9674696181973371  0.3644057095269338
  0.3357825655946745  0.0319804088773181  0.6500814071348312
  0.2059647198827376  0.2061103417460268  0.2072136624027053
  0.7059647198827372  0.2927863375972947  0.2938896582539730
  0.2463578680899666  0.4996367762399886  0.0040895800229279
  0.7463578680899671  0.4959104199770721  0.0003632237600115
 -0.0020250098561039  0.2500197096538281  0.4961812988104367
 -0.0058924544741088  0.7499154321360085  0.4991849767149407
  0.4979749901438960  0.0038187011895633  0.2499802903461718
  0.4941075455258914  0.0008150232850595  0.7500845678639915
  0.2466347251952121  0.0038451145467394  0.4996463308865217
  0.7466347251952116  0.0003536691134782  0.4961548854532606
  0.4982895343202941  0.2501480372459269  0.0047669929853015
  0.4945021685112410  0.7500589018665150 -0.0002983102186015
 -0.0017104656797060  0.4952330070146983  0.2498519627540729
 -0.0054978314887590  0.5002983102186011  0.7499410981334850
  0.0327786224296635  0.0387393905994899  0.0388429585578138
  0.5327786224296638  0.4611570414421866  0.4612606094005101
  0.8241672565607298  0.8238338239687236  0.1738347080920646
  0.8243552169516185  0.1744734137883098  0.8242167822431682
  0.1707120075131870  0.8276920621251136  0.8273050394993822
  0.6707120075131868  0.6726949605006178  0.6723079378748864
  0.3241672565607292  0.3261652919079353  0.6761661760312764
  0.3243552169516182  0.6757832177568318  0.3255265862116904
 
  0.00000000E+00  0.00000000E+00  0.00000000E+00
  0.00000000E+00  0.00000000E+00  0.00000000E+00
  0.00000000E+00  0.00000000E+00  0.00000000E+00
  0.00000000E+00  0.00000000E+00  0.00000000E+00
  0.00000000E+00  0.00000000E+00  0.00000000E+00
  0.00000000E+00  0.00000000E+00  0.00000000E+00
  0.00000000E+00  0.00000000E+00  0.00000000E+00
  0.00000000E+00  0.00000000E+00  0.00000000E+00
  0.00000000E+00  0.00000000E+00  0.00000000E+00
  0.00000000E+00  0.00000000E+00  0.00000000E+00
  0.00000000E+00  0.00000000E+00  0.00000000E+00
  0.00000000E+00  0.00000000E+00  0.00000000E+00
  0.00000000E+00  0.00000000E+00  0.00000000E+00
  0.00000000E+00  0.00000000E+00  0.00000000E+00
  0.00000000E+00  0.00000000E+00  0.00000000E+00
  0.00000000E+00  0.00000000E+00  0.00000000E+00
  0.00000000E+00  0.00000000E+00  0.00000000E+00
  0.00000000E+00  0.00000000E+00  0.00000000E+00
  0.00000000E+00  0.00000000E+00  0.00000000E+00
  0.00000000E+00  0.00000000E+00  0.00000000E+00
  0.00000000E+00  0.00000000E+00  0.00000000E+00
  0.00000000E+00  0.00000000E+00  0.00000000E+00
  0.00000000E+00  0.00000000E+00  0.00000000E+00
  0.00000000E+00  0.00000000E+00  0.00000000E+00
  0.00000000E+00  0.00000000E+00  0.00000000E+00
  0.00000000E+00  0.00000000E+00  0.00000000E+00
  0.00000000E+00  0.00000000E+00  0.00000000E+00
  0.00000000E+00  0.00000000E+00  0.00000000E+00
  0.00000000E+00  0.00000000E+00  0.00000000E+00
  0.00000000E+00  0.00000000E+00  0.00000000E+00
  0.00000000E+00  0.00000000E+00  0.00000000E+00
  0.00000000E+00  0.00000000E+00  0.00000000E+00
  0.00000000E+00  0.00000000E+00  0.00000000E+00
  0.00000000E+00  0.00000000E+00  0.00000000E+00
  0.00000000E+00  0.00000000E+00  0.00000000E+00
  0.00000000E+00  0.00000000E+00  0.00000000E+00
  0.00000000E+00  0.00000000E+00  0.00000000E+00
  0.00000000E+00  0.00000000E+00  0.00000000E+00
  0.00000000E+00  0.00000000E+00  0.00000000E+00
  0.00000000E+00  0.00000000E+00  0.00000000E+00
  0.00000000E+00  0.00000000E+00  0.00000000E+00
  0.00000000E+00  0.00000000E+00  0.00000000E+00
  0.00000000E+00  0.00000000E+00  0.00000000E+00
  0.00000000E+00  0.00000000E+00  0.00000000E+00
  0.00000000E+00  0.00000000E+00  0.00000000E+00
  0.00000000E+00  0.00000000E+00  0.00000000E+00
