Sodilite                                
   1.00000000000000     
     9.2295475862289713   -0.0073034280094644    0.0069416412453562
    -0.0072809062904163    9.2112816726362929   -0.0121589676070441
     0.0069306876239767   -0.0121630871524047    9.2125439886292035
   O    Na   Al   Si   Cl   K 
    24     3     6     6     2     5
Direct
  0.1346656862543867  0.4682890127329156  0.1462092731542827
  0.8487079178765414  0.5484345744944868  0.1569791337471668
  0.8620148732406370  0.4644726577088658  0.8538701636707797
  0.1478824686337676  0.5363581587036685  0.8382873641936587
  0.1569647395485921  0.1520819338776349  0.4648239874846049
  0.1447735109055780  0.8627838027902229  0.5307605057109004
  0.8389487983033769  0.8520520374747174  0.4501947455555124
  0.8533836093460836  0.1355334687338158  0.5367178145477992
  0.4650659991913676  0.1447180076862652  0.1336498095289792
  0.5364945007306827  0.1634198189747887  0.8471768826006318
  0.4652104145540257  0.8590675198668223  0.8650628769909919
  0.5457755412286674  0.8389910201709990  0.1506159387681491
  0.9540601587481020  0.6568856176341756  0.6619946356414759
  0.0291010745282392  0.3690448251270584  0.6402959800820113
  0.9528623374829039  0.3468047982914233  0.3329219685631425
  0.0355069042489795  0.6304553423876493  0.3596345678173828
  0.6399266391464111  0.6515425449548380  0.9508928866134870
  0.3554527494619881  0.6569855272125253  0.0347268856684993
  0.3569933200984584  0.3504976334201839  0.9678499900806979
  0.6448119067666379  0.3476318828347050  0.0438831431238483
  0.6547875758630093  0.9558385262460204  0.6426931942372949
  0.6488628832133940  0.0483661307482935  0.3588288081791844
  0.3456314924319706  0.9655149096916976  0.3528347968965825
  0.3474774071857629  0.0330659636433978  0.6412617136476609
  0.7922652170671163  0.7923011841656816  0.2067112893408438
  0.6990583779408025  0.6970754439961437  0.6967634367132668
  0.6979347480556868  0.3029817545640354  0.3019948516143636
  0.2479693805637690  0.5038542478836010 -0.0027583426220807
  0.7482237376333627  0.5033025896543841  0.0008191899650964
 -0.0031614826643930  0.2521815549854268  0.4936262157543421
 -0.0068077344411533  0.7513724792957185  0.4994844253509598
  0.5017495315610037 -0.0011707055413940  0.2483761323418230
  0.5019611317306910  0.0033047299326537  0.7478339498882189
  0.2483716197953121  0.0031396924251383  0.4968870387221970
  0.7487143055838069 -0.0015667284142519  0.4967205000350903
  0.5012233527241571  0.2520857570053645 -0.0021367119533194
  0.5018117316448389  0.7518354070250008  0.0003804475963750
 -0.0072115851557412  0.4994641081448191  0.2485933690579962
 -0.0025572284506003  0.5065927578823795  0.7479448834780966
 -0.0425775499319989 -0.0383036991344697  0.0380851992144728
  0.5702080837126623  0.5025412263593760  0.4972179244895729
  0.1714214695158709  0.1713113355025611  0.1690815011643405
  0.8287842438081564  0.1738936408664188  0.8266203120350899
  0.1716813277442845  0.8317644425092734  0.8281163812470217
  0.3344870476501973  0.3354520948872986  0.6651780313733423
  0.3310877649226062  0.6677509705976689  0.3322929086881662
 
  0.00000000E+00  0.00000000E+00  0.00000000E+00
  0.00000000E+00  0.00000000E+00  0.00000000E+00
  0.00000000E+00  0.00000000E+00  0.00000000E+00
  0.00000000E+00  0.00000000E+00  0.00000000E+00
  0.00000000E+00  0.00000000E+00  0.00000000E+00
  0.00000000E+00  0.00000000E+00  0.00000000E+00
  0.00000000E+00  0.00000000E+00  0.00000000E+00
  0.00000000E+00  0.00000000E+00  0.00000000E+00
  0.00000000E+00  0.00000000E+00  0.00000000E+00
  0.00000000E+00  0.00000000E+00  0.00000000E+00
  0.00000000E+00  0.00000000E+00  0.00000000E+00
  0.00000000E+00  0.00000000E+00  0.00000000E+00
  0.00000000E+00  0.00000000E+00  0.00000000E+00
  0.00000000E+00  0.00000000E+00  0.00000000E+00
  0.00000000E+00  0.00000000E+00  0.00000000E+00
  0.00000000E+00  0.00000000E+00  0.00000000E+00
  0.00000000E+00  0.00000000E+00  0.00000000E+00
  0.00000000E+00  0.00000000E+00  0.00000000E+00
  0.00000000E+00  0.00000000E+00  0.00000000E+00
  0.00000000E+00  0.00000000E+00  0.00000000E+00
  0.00000000E+00  0.00000000E+00  0.00000000E+00
  0.00000000E+00  0.00000000E+00  0.00000000E+00
  0.00000000E+00  0.00000000E+00  0.00000000E+00
  0.00000000E+00  0.00000000E+00  0.00000000E+00
  0.00000000E+00  0.00000000E+00  0.00000000E+00
  0.00000000E+00  0.00000000E+00  0.00000000E+00
  0.00000000E+00  0.00000000E+00  0.00000000E+00
  0.00000000E+00  0.00000000E+00  0.00000000E+00
  0.00000000E+00  0.00000000E+00  0.00000000E+00
  0.00000000E+00  0.00000000E+00  0.00000000E+00
  0.00000000E+00  0.00000000E+00  0.00000000E+00
  0.00000000E+00  0.00000000E+00  0.00000000E+00
  0.00000000E+00  0.00000000E+00  0.00000000E+00
  0.00000000E+00  0.00000000E+00  0.00000000E+00
  0.00000000E+00  0.00000000E+00  0.00000000E+00
  0.00000000E+00  0.00000000E+00  0.00000000E+00
  0.00000000E+00  0.00000000E+00  0.00000000E+00
  0.00000000E+00  0.00000000E+00  0.00000000E+00
  0.00000000E+00  0.00000000E+00  0.00000000E+00
  0.00000000E+00  0.00000000E+00  0.00000000E+00
  0.00000000E+00  0.00000000E+00  0.00000000E+00
  0.00000000E+00  0.00000000E+00  0.00000000E+00
  0.00000000E+00  0.00000000E+00  0.00000000E+00
  0.00000000E+00  0.00000000E+00  0.00000000E+00
  0.00000000E+00  0.00000000E+00  0.00000000E+00
  0.00000000E+00  0.00000000E+00  0.00000000E+00
