Sodilite                                
   1.00000000000000     
     9.3007841957515218    0.0214022490892317    0.0000000000000000
     0.0214111165606867    9.3015153095947323    0.0000000000000000
     0.0000000000000000    0.0000000000000000    9.3096449069248255
   O    Na   Al   Si   Cl   K 
    24     2     6     6     2     6
Direct
  0.1435173724150920  0.4702516040599044  0.1561620321124380
  0.8564826275849078  0.5297483959400954  0.1561620321124380
  0.8550740535164700  0.4741683846736373  0.8496573079491468
  0.1449259464835299  0.5258316153263625  0.8496573079491468
  0.1556761048022893  0.1452848856651250  0.4735167596079486
  0.1511641162079694  0.8570037681554583  0.5293161868736408
  0.8443238951977107  0.8547151143348748  0.4735167596079486
  0.8488358837920306  0.1429962318445419  0.5293161868736408
  0.4712794180328120  0.1525302955582226  0.1469211715081238
  0.5270639936098309  0.1543932592344835  0.8589041461763287
  0.4729360063901690  0.8456067407655166  0.8589041461763287
  0.5287205819671880  0.8474697044417769  0.1469211715081238
  0.9724133467317683  0.6438438140203775  0.6553334859199234
  0.0275866532682314  0.3561561859796225  0.6553334859199234
  0.9651028970929240  0.3559517553859261  0.3485524904992262
  0.0348971029070767  0.6440482446140740  0.3485524904992262
  0.6350232109291520  0.6449820127484109  0.9751359094124109
  0.3474204446056043  0.6614659993051426  0.0379101791826041
  0.3649767890708480  0.3550179872515890  0.9751359094124109
  0.6525795553943953  0.3385340006948571  0.0379101791826041
  0.6526065207941999  0.9734556889590599  0.6453886992159826
  0.6538850598089172  0.0361085652038785  0.3574624389025930
  0.3461149401910830  0.9638914347961216  0.3574624389025930
  0.3473934792058005  0.0265443110409408  0.6453886992159826
  0.6972740477374100  0.3026504026623180  0.2983250549326939
  0.3027259522625902  0.6973495973376826  0.2983250549326939
  0.2505659752096195  0.5022078196105560  0.0048899729432490
  0.7494340247903807  0.4977921803894436  0.0048899729432490
  0.0001922489954341  0.2504053256126191  0.5016883199630990
 -0.0001922489954341  0.7495946743873810  0.5016883199630990
  0.5000000000000000  0.0000000000000000  0.2537552652162858
  0.5000000000000000  0.0000000000000000  0.7534209061671474
  0.2502411649499535 -0.0013504721500032  0.5016135003164504
  0.7497588350500463  0.0013504721500032  0.5016135003164504
  0.5033155061282636  0.2503058769591466  0.0049601795869437
  0.4966844938717370  0.7496941230408538  0.0049601795869437
 -0.0000000000000000  0.5000000000000000  0.2530519318797155
 -0.0000000000000000  0.5000000000000000  0.7530555587753696
 -0.0000000000000000  0.0000000000000000  0.0055246877584405
  0.5000000000000000  0.5000000000000000  0.4387897753825973
  0.1849223234703070  0.1843137342310299  0.1852147826430456
  0.8150776765296933  0.8156862657689701  0.1852147826430456
  0.8187330306599462  0.1820108516057724  0.8185347286613820
  0.1812669693400543  0.8179891483942273  0.8185347286613820
  0.6718492103596461  0.6724950286796071  0.6717135910029908
  0.3281507896403543  0.3275049713203925  0.6717135910029908
 
  0.00000000E+00  0.00000000E+00  0.00000000E+00
  0.00000000E+00  0.00000000E+00  0.00000000E+00
  0.00000000E+00  0.00000000E+00  0.00000000E+00
  0.00000000E+00  0.00000000E+00  0.00000000E+00
  0.00000000E+00  0.00000000E+00  0.00000000E+00
  0.00000000E+00  0.00000000E+00  0.00000000E+00
  0.00000000E+00  0.00000000E+00  0.00000000E+00
  0.00000000E+00  0.00000000E+00  0.00000000E+00
  0.00000000E+00  0.00000000E+00  0.00000000E+00
  0.00000000E+00  0.00000000E+00  0.00000000E+00
  0.00000000E+00  0.00000000E+00  0.00000000E+00
  0.00000000E+00  0.00000000E+00  0.00000000E+00
  0.00000000E+00  0.00000000E+00  0.00000000E+00
  0.00000000E+00  0.00000000E+00  0.00000000E+00
  0.00000000E+00  0.00000000E+00  0.00000000E+00
  0.00000000E+00  0.00000000E+00  0.00000000E+00
  0.00000000E+00  0.00000000E+00  0.00000000E+00
  0.00000000E+00  0.00000000E+00  0.00000000E+00
  0.00000000E+00  0.00000000E+00  0.00000000E+00
  0.00000000E+00  0.00000000E+00  0.00000000E+00
  0.00000000E+00  0.00000000E+00  0.00000000E+00
  0.00000000E+00  0.00000000E+00  0.00000000E+00
  0.00000000E+00  0.00000000E+00  0.00000000E+00
  0.00000000E+00  0.00000000E+00  0.00000000E+00
  0.00000000E+00  0.00000000E+00  0.00000000E+00
  0.00000000E+00  0.00000000E+00  0.00000000E+00
  0.00000000E+00  0.00000000E+00  0.00000000E+00
  0.00000000E+00  0.00000000E+00  0.00000000E+00
  0.00000000E+00  0.00000000E+00  0.00000000E+00
  0.00000000E+00  0.00000000E+00  0.00000000E+00
  0.00000000E+00  0.00000000E+00  0.00000000E+00
  0.00000000E+00  0.00000000E+00  0.00000000E+00
  0.00000000E+00  0.00000000E+00  0.00000000E+00
  0.00000000E+00  0.00000000E+00  0.00000000E+00
  0.00000000E+00  0.00000000E+00  0.00000000E+00
  0.00000000E+00  0.00000000E+00  0.00000000E+00
  0.00000000E+00  0.00000000E+00  0.00000000E+00
  0.00000000E+00  0.00000000E+00  0.00000000E+00
  0.00000000E+00  0.00000000E+00  0.00000000E+00
  0.00000000E+00  0.00000000E+00  0.00000000E+00
  0.00000000E+00  0.00000000E+00  0.00000000E+00
  0.00000000E+00  0.00000000E+00  0.00000000E+00
  0.00000000E+00  0.00000000E+00  0.00000000E+00
  0.00000000E+00  0.00000000E+00  0.00000000E+00
  0.00000000E+00  0.00000000E+00  0.00000000E+00
  0.00000000E+00  0.00000000E+00  0.00000000E+00
