Sodilite                                
   1.00000000000000     
     9.1726415281765856   -0.0033576246770120    0.0264920505193255
    -0.0033601584511061    9.1738740245399697    0.0249100497855452
     0.0264968348943059    0.0249113996950907    9.1824212571242665
   O    Na   Al   Si   Cl   K 
    24     4     6     6     2     4
Direct
  0.1353016845820466  0.4612518418093922  0.1439790939189607
  0.8520537999306078  0.5523481330676859  0.1605051658598809
  0.8662241969232788  0.4652096777591435  0.8541843519614993
  0.1539133801777075  0.5419267313693027  0.8413962384089445
  0.1636297203606289  0.1534433744757321  0.4570728397650166
  0.1465113216347070  0.8683701306869211  0.5388541159360398
  0.8410777622361015  0.8508991345828347  0.4515166789036427
  0.8607109437069312  0.1361103191749301  0.5375412148627536
  0.4615037651661225  0.1467689384427287  0.1351961930378193
  0.5432508661247046  0.1629506057981992  0.8502930444234738
  0.4654158286246102  0.8569158620189139  0.8653514375422126
  0.5508154468655433  0.8436257416939487  0.1515155569444810
  0.9637475693534977  0.6419319335363439  0.6480245300523575
  0.0466475796505228  0.3547394110536157  0.6559438690291314
  0.9536622356553406  0.3632253868861324  0.3494493718835284
  0.0527530052601131  0.6463344962612715  0.3459333036515027
  0.6363240887662653  0.6463241329507936  0.9595895645706433
  0.3528557926827274  0.6625310893340335  0.0497837620167668
  0.3645026363348463  0.3553511328729780  0.9584820082499987
  0.6514678058093312  0.3445963377601935  0.0479595925427672
  0.6529062484828034  0.9627801944694526  0.6387318733151001
  0.6567954252250385  0.0535111562390237  0.3549792552497778
  0.3539301748250097  0.9546327347624421  0.3605676363455729
  0.3466019393374165  0.0457208084333450  0.6468949815120977
  0.7952006466629693  0.7963302390549386  0.2054613189202544
  0.3132181788779842  0.3130701952311774  0.6817265680236178
  0.6906627517141485  0.3091505704362149  0.3061866666386306
  0.3088181466039815  0.6918585822283776  0.3076785485653561
  0.2536433705256491  0.5058115539618879 -0.0000098959403061
  0.7531465912577066  0.5029276940935642  0.0044050685588126
  0.0061296367688266  0.2538780485963976  0.4984242445029897
  0.0013010906541998  0.7531229907047617  0.4960976420268609
  0.5056249124236872  0.0013468190054295  0.2507967550007346
  0.5033749015934956  0.0060282937753928  0.7500419298124539
  0.2535131907340143  0.0056397831869569  0.4999388567399551
  0.7532919526024233  0.0013346487966907  0.4956508007664627
  0.5055493015848072  0.2533518720913892 -0.0011556651682589
  0.5021895064068252  0.7530126747210684  0.0059102080606211
 -0.0003653344663750  0.5060345659536971  0.2501542094756308
  0.0071883395561228  0.5019771499569505  0.7497499944252946
 -0.0376958541779734 -0.0375060800499124  0.0415979805253071
  0.4714833004719786  0.4718135763553296  0.4641277689353174
  0.1727177275422987  0.1729596056364471  0.1681336369133929
  0.8343711340981759  0.1709651395684941  0.8287495627568487
  0.1713162446710664  0.8333673109522443  0.8299000317381635
  0.6627170461780842  0.6620254603031465  0.6626880887378920
 
  0.00000000E+00  0.00000000E+00  0.00000000E+00
  0.00000000E+00  0.00000000E+00  0.00000000E+00
  0.00000000E+00  0.00000000E+00  0.00000000E+00
  0.00000000E+00  0.00000000E+00  0.00000000E+00
  0.00000000E+00  0.00000000E+00  0.00000000E+00
  0.00000000E+00  0.00000000E+00  0.00000000E+00
  0.00000000E+00  0.00000000E+00  0.00000000E+00
  0.00000000E+00  0.00000000E+00  0.00000000E+00
  0.00000000E+00  0.00000000E+00  0.00000000E+00
  0.00000000E+00  0.00000000E+00  0.00000000E+00
  0.00000000E+00  0.00000000E+00  0.00000000E+00
  0.00000000E+00  0.00000000E+00  0.00000000E+00
  0.00000000E+00  0.00000000E+00  0.00000000E+00
  0.00000000E+00  0.00000000E+00  0.00000000E+00
  0.00000000E+00  0.00000000E+00  0.00000000E+00
  0.00000000E+00  0.00000000E+00  0.00000000E+00
  0.00000000E+00  0.00000000E+00  0.00000000E+00
  0.00000000E+00  0.00000000E+00  0.00000000E+00
  0.00000000E+00  0.00000000E+00  0.00000000E+00
  0.00000000E+00  0.00000000E+00  0.00000000E+00
  0.00000000E+00  0.00000000E+00  0.00000000E+00
  0.00000000E+00  0.00000000E+00  0.00000000E+00
  0.00000000E+00  0.00000000E+00  0.00000000E+00
  0.00000000E+00  0.00000000E+00  0.00000000E+00
  0.00000000E+00  0.00000000E+00  0.00000000E+00
  0.00000000E+00  0.00000000E+00  0.00000000E+00
  0.00000000E+00  0.00000000E+00  0.00000000E+00
  0.00000000E+00  0.00000000E+00  0.00000000E+00
  0.00000000E+00  0.00000000E+00  0.00000000E+00
  0.00000000E+00  0.00000000E+00  0.00000000E+00
  0.00000000E+00  0.00000000E+00  0.00000000E+00
  0.00000000E+00  0.00000000E+00  0.00000000E+00
  0.00000000E+00  0.00000000E+00  0.00000000E+00
  0.00000000E+00  0.00000000E+00  0.00000000E+00
  0.00000000E+00  0.00000000E+00  0.00000000E+00
  0.00000000E+00  0.00000000E+00  0.00000000E+00
  0.00000000E+00  0.00000000E+00  0.00000000E+00
  0.00000000E+00  0.00000000E+00  0.00000000E+00
  0.00000000E+00  0.00000000E+00  0.00000000E+00
  0.00000000E+00  0.00000000E+00  0.00000000E+00
  0.00000000E+00  0.00000000E+00  0.00000000E+00
  0.00000000E+00  0.00000000E+00  0.00000000E+00
  0.00000000E+00  0.00000000E+00  0.00000000E+00
  0.00000000E+00  0.00000000E+00  0.00000000E+00
  0.00000000E+00  0.00000000E+00  0.00000000E+00
  0.00000000E+00  0.00000000E+00  0.00000000E+00
