Sodilite                                
   1.00000000000000     
     9.0983148817877186   -0.0458989969564656    0.0117575400870417
    -0.0459097200943716    9.1004635861041745   -0.0112566052434514
     0.0117697338928980   -0.0112735586904399    9.1021333920634735
   O    Na   Al   Si   Cl   K 
    24     5     6     6     2     3
Direct
  0.1368331740813987  0.4512772049190510  0.1423566784054335
  0.8512471047578213  0.5526687234282134  0.1518993682423814
  0.8641092026118895  0.4532636591943280  0.8503259808949679
  0.1445944576606117  0.5595031334168584  0.8398671022995429
  0.1539534200268970  0.1471380421940525  0.4430708126451464
  0.1461519776660611  0.8646208249631496  0.5516034267561017
  0.8432606456345301  0.8540934957606381  0.4424057676903789
  0.8511870556624952  0.1379052912173853  0.5423774192424133
  0.4453391832834865  0.1592807243768515  0.1441170976786274
  0.5452792098227603  0.1457133996329779  0.8613121023544368
  0.4426901150446410  0.8466513141841243  0.8513146718761687
  0.5499741804564409  0.8529248697349221  0.1337017381135047
  0.9450478614709726  0.6425229721163470  0.6460667656737187
  0.0518123854123876  0.3597794684531484  0.6485212309309238
  0.9521773279022500  0.3595784279152823  0.3441699872333692
  0.0478583542884405  0.6428998252142124  0.3450259912531618
  0.6528322795637127  0.6659378631356820  0.9406330199793872
  0.3711895381011811  0.6395942179810934  0.0424994654605304
  0.3433377831685043  0.3386126691531468  0.9420902642241363
  0.6282604836397292  0.3612474979976654  0.0385638193188070
  0.6509331674372206  0.9477368867888771  0.6393943924457660
  0.6482220064024534  0.0462491725159755  0.3548369478062445
  0.3475866114229634  0.9522482003621530  0.3567043017110938
  0.3471410484342919  0.0566777884351442  0.6383721745584148
  0.1856551213945463  0.1864466778063606  0.1837239096193291
  0.8149860143069504  0.8126798257455730  0.1834539341836913
  0.1892800026639751  0.8122775436645276  0.8100363170065532
  0.6940002268325394  0.6948073950420364  0.6895405752419104
  0.3049740508780256  0.3072889246988747  0.6907534670719425
  0.2483689841437240  0.4996701190994614 -0.0091918392024969
  0.7478839410700832  0.5068388851861362 -0.0064317598509055
  0.0006120655229062  0.2517488669886619  0.4948331045524589
 -0.0025657887618124  0.7520989268910233  0.4950698185297350
  0.4965400958734760  0.0022518621328199  0.2442840572980154
  0.4968485167525542 -0.0003213587562621  0.7454098017094221
  0.2482563276661233  0.0043119247201313  0.4964532963735067
  0.7481817370994118 -0.0024650079356516  0.4945133586196783
  0.4913828098638349  0.2517942984844065 -0.0048994943623978
  0.5026262389366708  0.7515251740896751 -0.0087630329634002
 -0.0027615240625097  0.5023375164064224  0.2445374795036383
  0.0009541457800138  0.5037697592491462  0.7453870087211690
  0.0354772577123135 -0.0351195496332776  0.0299100101956821
  0.4986463861108846  0.5015331310145930  0.5760914744830240
  0.8414816485789880  0.1575644419841520  0.8412222802873678
  0.6583292801476869  0.3402161633424332  0.3369604771068684
  0.3398238875364720  0.6606188066874759  0.3358752290805491
 
  0.00000000E+00  0.00000000E+00  0.00000000E+00
  0.00000000E+00  0.00000000E+00  0.00000000E+00
  0.00000000E+00  0.00000000E+00  0.00000000E+00
  0.00000000E+00  0.00000000E+00  0.00000000E+00
  0.00000000E+00  0.00000000E+00  0.00000000E+00
  0.00000000E+00  0.00000000E+00  0.00000000E+00
  0.00000000E+00  0.00000000E+00  0.00000000E+00
  0.00000000E+00  0.00000000E+00  0.00000000E+00
  0.00000000E+00  0.00000000E+00  0.00000000E+00
  0.00000000E+00  0.00000000E+00  0.00000000E+00
  0.00000000E+00  0.00000000E+00  0.00000000E+00
  0.00000000E+00  0.00000000E+00  0.00000000E+00
  0.00000000E+00  0.00000000E+00  0.00000000E+00
  0.00000000E+00  0.00000000E+00  0.00000000E+00
  0.00000000E+00  0.00000000E+00  0.00000000E+00
  0.00000000E+00  0.00000000E+00  0.00000000E+00
  0.00000000E+00  0.00000000E+00  0.00000000E+00
  0.00000000E+00  0.00000000E+00  0.00000000E+00
  0.00000000E+00  0.00000000E+00  0.00000000E+00
  0.00000000E+00  0.00000000E+00  0.00000000E+00
  0.00000000E+00  0.00000000E+00  0.00000000E+00
  0.00000000E+00  0.00000000E+00  0.00000000E+00
  0.00000000E+00  0.00000000E+00  0.00000000E+00
  0.00000000E+00  0.00000000E+00  0.00000000E+00
  0.00000000E+00  0.00000000E+00  0.00000000E+00
  0.00000000E+00  0.00000000E+00  0.00000000E+00
  0.00000000E+00  0.00000000E+00  0.00000000E+00
  0.00000000E+00  0.00000000E+00  0.00000000E+00
  0.00000000E+00  0.00000000E+00  0.00000000E+00
  0.00000000E+00  0.00000000E+00  0.00000000E+00
  0.00000000E+00  0.00000000E+00  0.00000000E+00
  0.00000000E+00  0.00000000E+00  0.00000000E+00
  0.00000000E+00  0.00000000E+00  0.00000000E+00
  0.00000000E+00  0.00000000E+00  0.00000000E+00
  0.00000000E+00  0.00000000E+00  0.00000000E+00
  0.00000000E+00  0.00000000E+00  0.00000000E+00
  0.00000000E+00  0.00000000E+00  0.00000000E+00
  0.00000000E+00  0.00000000E+00  0.00000000E+00
  0.00000000E+00  0.00000000E+00  0.00000000E+00
  0.00000000E+00  0.00000000E+00  0.00000000E+00
  0.00000000E+00  0.00000000E+00  0.00000000E+00
  0.00000000E+00  0.00000000E+00  0.00000000E+00
  0.00000000E+00  0.00000000E+00  0.00000000E+00
  0.00000000E+00  0.00000000E+00  0.00000000E+00
  0.00000000E+00  0.00000000E+00  0.00000000E+00
  0.00000000E+00  0.00000000E+00  0.00000000E+00
