Sodilite                                
   1.00000000000000     
     9.2124537649626319    0.0130157238798763   -0.0057433164007202
     0.0130129478074875    9.2111939725811034   -0.0061934955472361
    -0.0057542594932431   -0.0062129580565418    9.2317108500891525
   O    Na   Al   Si   Cl   K 
    24     3     6     6     2     5
Direct
  0.1411544320950472  0.4672835554120397  0.1524587591625051
  0.8525867381828864  0.5342688161103230  0.1546080188491192
  0.8588599026413171  0.4517658430969980  0.8513175780828214
  0.1427474590948833  0.5440542305937555  0.8450119584868329
  0.1401434959064489  0.1307723725846439  0.4712724869863364
  0.1621866400700477  0.8428253467830535  0.5459059768466659
  0.8598197051493577  0.8696735691021015  0.4646526902032232
  0.8326016985833128  0.1533112192471377  0.5469859132482949
  0.4681729003201114  0.1493472628789566  0.1428520609189773
  0.5438591825522437  0.1525388757398794  0.8549390821708602
  0.4510549041627349  0.8485704991980476  0.8601228301430157
  0.5344242890888319  0.8427973674423759  0.1446225129757233
  0.9500834657136565  0.6478610702948630  0.6610185121069977
  0.0364552704024424  0.3642536722461815  0.6468034345327960
  0.9651178243657750  0.3478717918577572  0.3431089552988841
  0.0305549648138214  0.6373220054533496  0.3551539049878535
  0.6506678965236596  0.6611009948077087  0.9542325317129990
  0.3649376254284901  0.6409294300631030  0.0344290879839509
  0.3470700662139558  0.3364367793727590  0.9636620804123439
  0.6336424241237446  0.3552657937712477  0.0347096067243124
  0.6569353811267594  0.9514218028016129  0.6512425548533980
  0.6462731296422622  0.0314176264703025  0.3652563463216637
  0.3382774513251713  0.9639121494718720  0.3522466288034354
  0.3537089582429329  0.0353959877128984  0.6382184297799015
  0.8020032551307043  0.1974378127676765  0.8019446936796799
  0.1971697574589894  0.8029079689590523  0.8008677461975146
  0.7065574336076893  0.7075228119631487  0.7077066282713431
  0.2477261827954484  0.4966436101706562 -0.0020667474985618
  0.7483548261140028  0.5012442954787528 -0.0016495808569077
 -0.0065096089913055  0.2477304887519330  0.5032670785729675
 -0.0004484778445651  0.7485506654757609  0.5068817812412153
  0.4972346275074329 -0.0039565299473248  0.2520262883829317
  0.5008859064991095 -0.0032409329517529  0.7517765469202636
  0.2479644523033864 -0.0067090415370418  0.5027254640357992
  0.7485362686790417  0.0005034655068820  0.5072018522343303
  0.4979034944688188  0.2478987549664968 -0.0013516465172731
  0.5003430130792125  0.7481568342578948 -0.0018569098323194
 -0.0031778940482201  0.4969096859380128  0.2517005177001808
 -0.0033292384543227  0.5015360430011945  0.7512992094857245
 -0.0023137372034232 -0.0020678731482565 -0.0698676142046187
  0.5381325084011009  0.5383555899065253  0.5420225662290575
  0.1654949943602247  0.1648384925926946  0.1661412558206027
  0.8323149027360025  0.8323036872492864  0.1690207261330745
  0.3266361340013684  0.3262412053513319  0.6712437874931331
  0.6692555611960047  0.3284163758909774  0.3282635884626169
  0.3279298324334058  0.6683785268431321  0.3278708264563343
 
  0.00000000E+00  0.00000000E+00  0.00000000E+00
  0.00000000E+00  0.00000000E+00  0.00000000E+00
  0.00000000E+00  0.00000000E+00  0.00000000E+00
  0.00000000E+00  0.00000000E+00  0.00000000E+00
  0.00000000E+00  0.00000000E+00  0.00000000E+00
  0.00000000E+00  0.00000000E+00  0.00000000E+00
  0.00000000E+00  0.00000000E+00  0.00000000E+00
  0.00000000E+00  0.00000000E+00  0.00000000E+00
  0.00000000E+00  0.00000000E+00  0.00000000E+00
  0.00000000E+00  0.00000000E+00  0.00000000E+00
  0.00000000E+00  0.00000000E+00  0.00000000E+00
  0.00000000E+00  0.00000000E+00  0.00000000E+00
  0.00000000E+00  0.00000000E+00  0.00000000E+00
  0.00000000E+00  0.00000000E+00  0.00000000E+00
  0.00000000E+00  0.00000000E+00  0.00000000E+00
  0.00000000E+00  0.00000000E+00  0.00000000E+00
  0.00000000E+00  0.00000000E+00  0.00000000E+00
  0.00000000E+00  0.00000000E+00  0.00000000E+00
  0.00000000E+00  0.00000000E+00  0.00000000E+00
  0.00000000E+00  0.00000000E+00  0.00000000E+00
  0.00000000E+00  0.00000000E+00  0.00000000E+00
  0.00000000E+00  0.00000000E+00  0.00000000E+00
  0.00000000E+00  0.00000000E+00  0.00000000E+00
  0.00000000E+00  0.00000000E+00  0.00000000E+00
  0.00000000E+00  0.00000000E+00  0.00000000E+00
  0.00000000E+00  0.00000000E+00  0.00000000E+00
  0.00000000E+00  0.00000000E+00  0.00000000E+00
  0.00000000E+00  0.00000000E+00  0.00000000E+00
  0.00000000E+00  0.00000000E+00  0.00000000E+00
  0.00000000E+00  0.00000000E+00  0.00000000E+00
  0.00000000E+00  0.00000000E+00  0.00000000E+00
  0.00000000E+00  0.00000000E+00  0.00000000E+00
  0.00000000E+00  0.00000000E+00  0.00000000E+00
  0.00000000E+00  0.00000000E+00  0.00000000E+00
  0.00000000E+00  0.00000000E+00  0.00000000E+00
  0.00000000E+00  0.00000000E+00  0.00000000E+00
  0.00000000E+00  0.00000000E+00  0.00000000E+00
  0.00000000E+00  0.00000000E+00  0.00000000E+00
  0.00000000E+00  0.00000000E+00  0.00000000E+00
  0.00000000E+00  0.00000000E+00  0.00000000E+00
  0.00000000E+00  0.00000000E+00  0.00000000E+00
  0.00000000E+00  0.00000000E+00  0.00000000E+00
  0.00000000E+00  0.00000000E+00  0.00000000E+00
  0.00000000E+00  0.00000000E+00  0.00000000E+00
  0.00000000E+00  0.00000000E+00  0.00000000E+00
  0.00000000E+00  0.00000000E+00  0.00000000E+00
