Sodilite                                
   1.00000000000000     
     9.0946257539494244   -0.0148243541697139   -0.0146292279072637
    -0.0148216459682496    9.1070341504662142   -0.0160054109458921
    -0.0146362106130221   -0.0160060757890422    9.0958172338835013
   O    Na   Al   Si   Cl   K 
    24     5     6     6     2     3
Direct
  0.1525858334207829  0.4443691799859927  0.1625576121569787
  0.8687918155994935  0.5412373578826218  0.1372432765978103
  0.8459907523234540  0.4415746273785729  0.8357445500100994
  0.1279898169196304  0.5428055090291755  0.8591109985370504
  0.1491317684278671  0.1419146323481233  0.4451413150445845
  0.1509520340832186  0.8575092140957199  0.5432918719895593
  0.8472881440593293  0.8581422826739282  0.4525262364746973
  0.8482261288318620  0.1398770859684184  0.5562949232466863
  0.4438808822030320  0.1503842826639075  0.1394601670621269
  0.5559746347041907  0.1493581121778769  0.8595337793031671
  0.4537506816545976  0.8482004242675197  0.8556151193494198
  0.5437861080351126  0.8464859364574419  0.1414031519659902
  0.9466298038793554  0.6450288692029287  0.6565715893273459
  0.0543178850534016  0.3633739453787876  0.6439194808625441
  0.9423373303059639  0.3524233761116822  0.3446517200970327
  0.0418557724986835  0.6356865725832985  0.3504040755517243
  0.6472594018397004  0.6539625332088643  0.9470744943894778
  0.3606622818477684  0.6446779481239671  0.0406481119807149
  0.3548542832647733  0.3427054776034836  0.9414650754411824
  0.6339074622217642  0.3522944914124886  0.0557638315859642
  0.6439736356599279  0.9466394179056307  0.6347042654010118
  0.6568436382138241  0.0541879473230765  0.3523224832307723
  0.3542701587235556  0.9556545753656072  0.3632954984205548
  0.3412139470357916  0.0548739358637526  0.6469154560329616
  0.1922971325454847  0.1919609124406418  0.1933996992371581
  0.8024657955795753  0.1943738846051339  0.8027707302863563
  0.6858358886540913  0.6825410437861484  0.6868226901863351
  0.3103234021520073  0.3103278891510315  0.6882186002702145
  0.6889954160353376  0.3098567874155362  0.3114566941275431
  0.2481580040266675  0.4926862695624736  0.0003637477099728
  0.7483110644850103  0.4953855386069942 -0.0059319454177045
 -0.0027113316662654  0.2489679932278262  0.4981490624438444
 -0.0029470119531465  0.7477869030306603  0.5004309803738309
  0.5006581328437941  0.0013817754071999  0.2483518263059515
  0.4980575676521094  0.0010352031015518  0.7482290309362108
  0.2485977385382947  0.0022322012820251  0.4998743419572611
  0.7486180516614974  0.0002429547735423  0.4986613984490531
  0.4974129522607342  0.2485827878743846 -0.0016950775068596
  0.5009450945952364  0.7477345289864848 -0.0037119452249611
  0.0007514952683780  0.4928632189194987  0.2483540620001398
 -0.0061434172380039  0.4969335436551124  0.7486274583618253
 -0.0028270855547632  0.0794893547610068 -0.0026081082795307
  0.5335443391125718  0.4595851817570038  0.5337375337080946
  0.8401954745818785  0.8376156995063648  0.1586221985320193
  0.1593608894730583  0.8387622782392796  0.8396012599020641
  0.3436262061393722  0.6562863148972320  0.3426166775817235
 
  0.00000000E+00  0.00000000E+00  0.00000000E+00
  0.00000000E+00  0.00000000E+00  0.00000000E+00
  0.00000000E+00  0.00000000E+00  0.00000000E+00
  0.00000000E+00  0.00000000E+00  0.00000000E+00
  0.00000000E+00  0.00000000E+00  0.00000000E+00
  0.00000000E+00  0.00000000E+00  0.00000000E+00
  0.00000000E+00  0.00000000E+00  0.00000000E+00
  0.00000000E+00  0.00000000E+00  0.00000000E+00
  0.00000000E+00  0.00000000E+00  0.00000000E+00
  0.00000000E+00  0.00000000E+00  0.00000000E+00
  0.00000000E+00  0.00000000E+00  0.00000000E+00
  0.00000000E+00  0.00000000E+00  0.00000000E+00
  0.00000000E+00  0.00000000E+00  0.00000000E+00
  0.00000000E+00  0.00000000E+00  0.00000000E+00
  0.00000000E+00  0.00000000E+00  0.00000000E+00
  0.00000000E+00  0.00000000E+00  0.00000000E+00
  0.00000000E+00  0.00000000E+00  0.00000000E+00
  0.00000000E+00  0.00000000E+00  0.00000000E+00
  0.00000000E+00  0.00000000E+00  0.00000000E+00
  0.00000000E+00  0.00000000E+00  0.00000000E+00
  0.00000000E+00  0.00000000E+00  0.00000000E+00
  0.00000000E+00  0.00000000E+00  0.00000000E+00
  0.00000000E+00  0.00000000E+00  0.00000000E+00
  0.00000000E+00  0.00000000E+00  0.00000000E+00
  0.00000000E+00  0.00000000E+00  0.00000000E+00
  0.00000000E+00  0.00000000E+00  0.00000000E+00
  0.00000000E+00  0.00000000E+00  0.00000000E+00
  0.00000000E+00  0.00000000E+00  0.00000000E+00
  0.00000000E+00  0.00000000E+00  0.00000000E+00
  0.00000000E+00  0.00000000E+00  0.00000000E+00
  0.00000000E+00  0.00000000E+00  0.00000000E+00
  0.00000000E+00  0.00000000E+00  0.00000000E+00
  0.00000000E+00  0.00000000E+00  0.00000000E+00
  0.00000000E+00  0.00000000E+00  0.00000000E+00
  0.00000000E+00  0.00000000E+00  0.00000000E+00
  0.00000000E+00  0.00000000E+00  0.00000000E+00
  0.00000000E+00  0.00000000E+00  0.00000000E+00
  0.00000000E+00  0.00000000E+00  0.00000000E+00
  0.00000000E+00  0.00000000E+00  0.00000000E+00
  0.00000000E+00  0.00000000E+00  0.00000000E+00
  0.00000000E+00  0.00000000E+00  0.00000000E+00
  0.00000000E+00  0.00000000E+00  0.00000000E+00
  0.00000000E+00  0.00000000E+00  0.00000000E+00
  0.00000000E+00  0.00000000E+00  0.00000000E+00
  0.00000000E+00  0.00000000E+00  0.00000000E+00
  0.00000000E+00  0.00000000E+00  0.00000000E+00
