Sodilite                                
   1.00000000000000     
     9.3015127448233574    0.0000000000000000   -0.0214217003790970
     0.0000000000000000    9.3096406756151495    0.0000000000000000
    -0.0214128185583277    0.0000000000000000    9.3007818743501556
   O    Na   Al   Si   Cl   K 
    24     2     6     6     2     6
Direct
  0.1429963241758977  0.4706830058861514  0.1511643254962754
  0.8547162578778168  0.5264822486390184  0.1556748041922419
  0.8570036758241020  0.4706830058861514  0.8488356745037248
  0.1452837421221832  0.5264822486390184  0.8443251958077583
  0.1543932158643121  0.1410962370316505  0.4729354148965604
  0.1525297597313031  0.8530796789465129  0.5287203827910882
  0.8474702402686977  0.8530796789465129  0.4712796172089116
  0.8456067841356875  0.1410962370316505  0.5270645851034396
  0.4741675303067390  0.1503426856769100  0.1449258530053841
  0.5258324696932608  0.1503426856769100  0.8550741469946160
  0.4702522491567777  0.8438387402330115  0.8564829320267476
  0.5297477508432216  0.8438387402330115  0.1435170679732525
  0.9638923217720081  0.6425371553813869  0.6538846357029652
  0.0265458412383088  0.3546112197104132  0.6526063284719069
  0.9734541587616907  0.3546112197104132  0.3473936715280931
  0.0361076782279924  0.6425371553813869  0.3461153642970343
  0.6440479719280756  0.6514478061231470  0.9651032767886917
  0.3559520280719244  0.6514478061231470  0.0348967232113083
  0.3561565188718481  0.3446674201955986  0.9724121422425249
  0.6438434811281516  0.3446674201955986  0.0275878577574754
  0.6614654587268297  0.9620899963356287  0.6525790209271429
  0.6449820117798741  0.0248649263478594  0.3649774687620608
  0.3385345412731702  0.9620899963356287  0.3474209790728575
  0.3550179882201258  0.0248649263478594  0.6350225312379391
  0.6973507568257771  0.7016770922019891  0.6972757910897905
  0.3026492431742225  0.7016770922019891  0.3027242089102100
  0.2504051448081111  0.4983113491722399 -0.0001920135145990
  0.7495948551918888  0.4983113491722399  0.0001920135145990
 -0.0000000000000000  0.2465792087272714  0.5000000000000000
 -0.0000000000000000  0.7462444756041161  0.5000000000000000
  0.4977922429906898 -0.0048890867952101  0.2505660666708293
  0.5022077570093099 -0.0048890867952101  0.7494339333291707
  0.2503058126249258 -0.0049594975603538  0.4966839851107490
  0.7496941873750744 -0.0049594975603538  0.5033160148892507
  0.5000000000000000  0.2469446445400242  0.0000000000000000
  0.5000000000000000  0.7469484907821959  0.0000000000000000
  0.0013507460393199  0.4983858040882832  0.2502410921536407
 -0.0013507460393199  0.4983858040882832  0.7497589078463597
 -0.0000000000000000 -0.0055324909979805  0.0000000000000000
  0.5000000000000000  0.5612148968699413  0.5000000000000000
  0.1820084505485556  0.1814621348946494  0.1812644550008145
  0.8156843136152584  0.8147830792817752  0.1849242250703160
  0.8179915494514444  0.1814621348946494  0.8187355449991853
  0.1843156863847422  0.8147830792817752  0.8150757749296841
  0.3275058653284494  0.3282883914465556  0.6718480797960165
  0.6724941346715513  0.3282883914465556  0.3281519202039837
 
  0.00000000E+00  0.00000000E+00  0.00000000E+00
  0.00000000E+00  0.00000000E+00  0.00000000E+00
  0.00000000E+00  0.00000000E+00  0.00000000E+00
  0.00000000E+00  0.00000000E+00  0.00000000E+00
  0.00000000E+00  0.00000000E+00  0.00000000E+00
  0.00000000E+00  0.00000000E+00  0.00000000E+00
  0.00000000E+00  0.00000000E+00  0.00000000E+00
  0.00000000E+00  0.00000000E+00  0.00000000E+00
  0.00000000E+00  0.00000000E+00  0.00000000E+00
  0.00000000E+00  0.00000000E+00  0.00000000E+00
  0.00000000E+00  0.00000000E+00  0.00000000E+00
  0.00000000E+00  0.00000000E+00  0.00000000E+00
  0.00000000E+00  0.00000000E+00  0.00000000E+00
  0.00000000E+00  0.00000000E+00  0.00000000E+00
  0.00000000E+00  0.00000000E+00  0.00000000E+00
  0.00000000E+00  0.00000000E+00  0.00000000E+00
  0.00000000E+00  0.00000000E+00  0.00000000E+00
  0.00000000E+00  0.00000000E+00  0.00000000E+00
  0.00000000E+00  0.00000000E+00  0.00000000E+00
  0.00000000E+00  0.00000000E+00  0.00000000E+00
  0.00000000E+00  0.00000000E+00  0.00000000E+00
  0.00000000E+00  0.00000000E+00  0.00000000E+00
  0.00000000E+00  0.00000000E+00  0.00000000E+00
  0.00000000E+00  0.00000000E+00  0.00000000E+00
  0.00000000E+00  0.00000000E+00  0.00000000E+00
  0.00000000E+00  0.00000000E+00  0.00000000E+00
  0.00000000E+00  0.00000000E+00  0.00000000E+00
  0.00000000E+00  0.00000000E+00  0.00000000E+00
  0.00000000E+00  0.00000000E+00  0.00000000E+00
  0.00000000E+00  0.00000000E+00  0.00000000E+00
  0.00000000E+00  0.00000000E+00  0.00000000E+00
  0.00000000E+00  0.00000000E+00  0.00000000E+00
  0.00000000E+00  0.00000000E+00  0.00000000E+00
  0.00000000E+00  0.00000000E+00  0.00000000E+00
  0.00000000E+00  0.00000000E+00  0.00000000E+00
  0.00000000E+00  0.00000000E+00  0.00000000E+00
  0.00000000E+00  0.00000000E+00  0.00000000E+00
  0.00000000E+00  0.00000000E+00  0.00000000E+00
  0.00000000E+00  0.00000000E+00  0.00000000E+00
  0.00000000E+00  0.00000000E+00  0.00000000E+00
  0.00000000E+00  0.00000000E+00  0.00000000E+00
  0.00000000E+00  0.00000000E+00  0.00000000E+00
  0.00000000E+00  0.00000000E+00  0.00000000E+00
  0.00000000E+00  0.00000000E+00  0.00000000E+00
  0.00000000E+00  0.00000000E+00  0.00000000E+00
  0.00000000E+00  0.00000000E+00  0.00000000E+00
