Sodilite                                
   1.00000000000000     
     9.2714405985049115   -0.0098598423735136   -0.0098598423700813
    -0.0098598423700813    9.2714405985049115    0.0098598423735136
    -0.0098598423735136    0.0098598423700813    9.2714405985049115
   O    Na   Al   Si   Cl   K 
    24     3     6     6     2     5
Direct
  0.1454134789738665  0.4686722598886432  0.1502523488962435
  0.8568878871086320  0.5291650770960816  0.1531930053795237
  0.8586109733831017  0.4671904377059579  0.8460564871364662
  0.1458169453416350  0.5313163739250247  0.8446898852566865
  0.1539435128635340  0.1413890266168988  0.4671904377059579
  0.1553101147433132  0.8541830546583651  0.5313163739250247
  0.8497476511037566  0.8545865210261334  0.4686722598886432
  0.8468069946204767  0.1431121128913678  0.5291650770960816
  0.4708349229039186  0.1531930053795237  0.1431121128913678
  0.5313277401113572  0.1502523488962435  0.8545865210261334
  0.4686836260749752  0.8446898852566865  0.8541830546583651
  0.5328095622940417  0.8460564871364662  0.1413890266168988
  0.9633424685574468  0.6386013287959504  0.6486411636502224
  0.0392458667256858  0.3511460811885400  0.6558086762295554
  0.9714820982650968  0.3598092165019023  0.3501151814439137
  0.0402466927030463  0.6470430365101801  0.3416901068643771
  0.6488539188114595  0.6558086762295554  0.9607541332743145
  0.3613986712040497  0.6486411636502224  0.0366575314425528
  0.3529569634898197  0.3416901068643771  0.9597533072969537
  0.6401907834980978  0.3501151814439137  0.0285179017349039
  0.6583098931356229  0.9597533072969537  0.6470430365101801
  0.6498848185560863  0.0285179017349039  0.3598092165019023
  0.3441913237704444  0.9607541332743145  0.3511460811885400
  0.3513588363497775  0.0366575314425528  0.6386013287959504
  0.6901120578951919  0.6964455645177423  0.6965472635564318
  0.3034527364435681  0.3098879421048078  0.6964455645177423
  0.3035544354822579  0.6965472635564318  0.3098879421048078
  0.2525645267541081  0.4981976509670168 -0.0024504315399117
  0.7513897119936043  0.5001244316722613 -0.0023473524916286
  0.0023473524916286  0.2486102880063962  0.5001244316722613
  0.0024504315399117  0.7474354732458920  0.4981976509670168
  0.4998755683277397 -0.0023473524916286  0.2486102880063962
  0.5018023490329836 -0.0024504315399117  0.7474354732458920
  0.2517434807580565 -0.0019694519069660  0.4974085427264462
  0.7512744560943831 -0.0033003963363711  0.5007270581521082
  0.4992729418478921  0.2487255439056170 -0.0033003963363711
  0.5025914572735538  0.7482565192419438 -0.0019694519069660
  0.0033003963363711  0.5007270581521082  0.2487255439056170
  0.0019694519069660  0.4974085427264462  0.7482565192419438
  0.0023243953168826 -0.0023243953168826 -0.0023243953168826
  0.4717305405779317  0.5282694594220678  0.5282694594220678
  0.1819051520990866  0.1817334325311315  0.1809134642148555
  0.8190865357851441  0.8180948479009135  0.1817334325311315
  0.8182665674688687  0.1809134642148555  0.8180948479009135
  0.1843277950571502  0.8156722049428498  0.8156722049428498
  0.6670019149274794  0.3329980850725204  0.3329980850725204
 
  0.00000000E+00  0.00000000E+00  0.00000000E+00
  0.00000000E+00  0.00000000E+00  0.00000000E+00
  0.00000000E+00  0.00000000E+00  0.00000000E+00
  0.00000000E+00  0.00000000E+00  0.00000000E+00
  0.00000000E+00  0.00000000E+00  0.00000000E+00
  0.00000000E+00  0.00000000E+00  0.00000000E+00
  0.00000000E+00  0.00000000E+00  0.00000000E+00
  0.00000000E+00  0.00000000E+00  0.00000000E+00
  0.00000000E+00  0.00000000E+00  0.00000000E+00
  0.00000000E+00  0.00000000E+00  0.00000000E+00
  0.00000000E+00  0.00000000E+00  0.00000000E+00
  0.00000000E+00  0.00000000E+00  0.00000000E+00
  0.00000000E+00  0.00000000E+00  0.00000000E+00
  0.00000000E+00  0.00000000E+00  0.00000000E+00
  0.00000000E+00  0.00000000E+00  0.00000000E+00
  0.00000000E+00  0.00000000E+00  0.00000000E+00
  0.00000000E+00  0.00000000E+00  0.00000000E+00
  0.00000000E+00  0.00000000E+00  0.00000000E+00
  0.00000000E+00  0.00000000E+00  0.00000000E+00
  0.00000000E+00  0.00000000E+00  0.00000000E+00
  0.00000000E+00  0.00000000E+00  0.00000000E+00
  0.00000000E+00  0.00000000E+00  0.00000000E+00
  0.00000000E+00  0.00000000E+00  0.00000000E+00
  0.00000000E+00  0.00000000E+00  0.00000000E+00
  0.00000000E+00  0.00000000E+00  0.00000000E+00
  0.00000000E+00  0.00000000E+00  0.00000000E+00
  0.00000000E+00  0.00000000E+00  0.00000000E+00
  0.00000000E+00  0.00000000E+00  0.00000000E+00
  0.00000000E+00  0.00000000E+00  0.00000000E+00
  0.00000000E+00  0.00000000E+00  0.00000000E+00
  0.00000000E+00  0.00000000E+00  0.00000000E+00
  0.00000000E+00  0.00000000E+00  0.00000000E+00
  0.00000000E+00  0.00000000E+00  0.00000000E+00
  0.00000000E+00  0.00000000E+00  0.00000000E+00
  0.00000000E+00  0.00000000E+00  0.00000000E+00
  0.00000000E+00  0.00000000E+00  0.00000000E+00
  0.00000000E+00  0.00000000E+00  0.00000000E+00
  0.00000000E+00  0.00000000E+00  0.00000000E+00
  0.00000000E+00  0.00000000E+00  0.00000000E+00
  0.00000000E+00  0.00000000E+00  0.00000000E+00
  0.00000000E+00  0.00000000E+00  0.00000000E+00
  0.00000000E+00  0.00000000E+00  0.00000000E+00
  0.00000000E+00  0.00000000E+00  0.00000000E+00
  0.00000000E+00  0.00000000E+00  0.00000000E+00
  0.00000000E+00  0.00000000E+00  0.00000000E+00
  0.00000000E+00  0.00000000E+00  0.00000000E+00
