Sodilite                                
   1.00000000000000     
     9.1744853687918475   -0.0244227919189614    0.0032117411079028
    -0.0244226617975181    9.1823039737025844    0.0258760236423287
     0.0032088884581223    0.0258727564009764    9.1734374599042692
   O    Na   Al   Si   Cl   K 
    24     4     6     6     2     4
Direct
  0.1363577915287013  0.4625910325445611  0.1394868591598289
  0.8510584707808122  0.5484686038245623  0.1588005168639161
  0.8682099361508515  0.4612015710136742  0.8533287031847578
  0.1532968763185074  0.5427974574637703  0.8365480609982274
  0.1627346025741323  0.1495259734835522  0.4569302015379900
  0.1470217429629191  0.8645521581375244  0.5384796188113778
  0.8438021637456721  0.8486490668619809  0.4491895627940643
  0.8567034874994400  0.1348789444523041  0.5344621064611041
  0.4652542336331960  0.1460037364320672  0.1339528165383019
  0.5417567606935974  0.1583917404752405  0.8462430377140517
  0.4613549581713724  0.8557490892780809  0.8643683722592261
  0.5523318928142156  0.8397001543040724  0.1477107329275500
  0.9547463011119677  0.6395210526702628  0.6461448151516299
  0.0456516706011632  0.3531307667354311  0.6533850269858741
  0.9629198857327237  0.3612657383236427  0.3470693933248643
  0.0534132427301511  0.6450556711581183  0.3432491919308053
  0.6463865671850317  0.6540484137863266  0.9473737634080169
  0.3632205832835090  0.6506152733563400  0.0462650374753389
  0.3547880246992176  0.3440767475906203  0.9533996927139701
  0.6420007679833458  0.3519422757792400  0.0360772135937644
  0.6625264131712126  0.9502697654329353  0.6470536694019783
  0.6463453580856445  0.0402209257822943  0.3635646211403497
  0.3446150314132441  0.9521572603396049  0.3484945652772888
  0.3553492731218728  0.0415189317050393  0.6354616486742216
  0.7965092246582511  0.7948078613679248  0.2046077568293130
  0.6916785510164001  0.6922600377763868  0.6913485226466202
  0.3127553457051736  0.3178823971088650  0.6871041696535538
  0.3089726988391700  0.6937729772301208  0.3095511774156425
  0.2539163888302907  0.5015682824818762 -0.0060389687672964
  0.7531584559149763  0.5038874715465044 -0.0013187816966761
  0.0059511699201540  0.2499942742082615  0.4966376892062769
  0.0013768508547535  0.7492200898003526  0.4944086665186915
  0.5029157080944902 -0.0043654320663715  0.2468156833586757
  0.5058003800429727 -0.0000566548976958  0.7462842979428410
  0.2533546953839899  0.0010978095206761  0.4944682839295363
  0.7530128757739905 -0.0058220299765737  0.4977696762483125
  0.5019891930818393  0.2502401948849428 -0.0071214816332638
  0.5060335894455418  0.7498430598849315  0.0002625522159785
  0.0014057568681287  0.5043412824154708  0.2467295380504656
  0.0055645048476493  0.5000562985529907  0.7465209508097045
 -0.0374057443561567 -0.0410641048169131  0.0375888730964672
  0.4717989236031727  0.5354189839816750  0.5285230333336152
  0.1711468409631403  0.1714226172013644  0.1659104404352051
  0.8330975200661661  0.1702246735808855  0.8284606707541939
  0.1729436016139670  0.8317674504847081  0.8273388406362717
  0.6621774328394355  0.3371701087983713  0.3371091806873701
 
  0.00000000E+00  0.00000000E+00  0.00000000E+00
  0.00000000E+00  0.00000000E+00  0.00000000E+00
  0.00000000E+00  0.00000000E+00  0.00000000E+00
  0.00000000E+00  0.00000000E+00  0.00000000E+00
  0.00000000E+00  0.00000000E+00  0.00000000E+00
  0.00000000E+00  0.00000000E+00  0.00000000E+00
  0.00000000E+00  0.00000000E+00  0.00000000E+00
  0.00000000E+00  0.00000000E+00  0.00000000E+00
  0.00000000E+00  0.00000000E+00  0.00000000E+00
  0.00000000E+00  0.00000000E+00  0.00000000E+00
  0.00000000E+00  0.00000000E+00  0.00000000E+00
  0.00000000E+00  0.00000000E+00  0.00000000E+00
  0.00000000E+00  0.00000000E+00  0.00000000E+00
  0.00000000E+00  0.00000000E+00  0.00000000E+00
  0.00000000E+00  0.00000000E+00  0.00000000E+00
  0.00000000E+00  0.00000000E+00  0.00000000E+00
  0.00000000E+00  0.00000000E+00  0.00000000E+00
  0.00000000E+00  0.00000000E+00  0.00000000E+00
  0.00000000E+00  0.00000000E+00  0.00000000E+00
  0.00000000E+00  0.00000000E+00  0.00000000E+00
  0.00000000E+00  0.00000000E+00  0.00000000E+00
  0.00000000E+00  0.00000000E+00  0.00000000E+00
  0.00000000E+00  0.00000000E+00  0.00000000E+00
  0.00000000E+00  0.00000000E+00  0.00000000E+00
  0.00000000E+00  0.00000000E+00  0.00000000E+00
  0.00000000E+00  0.00000000E+00  0.00000000E+00
  0.00000000E+00  0.00000000E+00  0.00000000E+00
  0.00000000E+00  0.00000000E+00  0.00000000E+00
  0.00000000E+00  0.00000000E+00  0.00000000E+00
  0.00000000E+00  0.00000000E+00  0.00000000E+00
  0.00000000E+00  0.00000000E+00  0.00000000E+00
  0.00000000E+00  0.00000000E+00  0.00000000E+00
  0.00000000E+00  0.00000000E+00  0.00000000E+00
  0.00000000E+00  0.00000000E+00  0.00000000E+00
  0.00000000E+00  0.00000000E+00  0.00000000E+00
  0.00000000E+00  0.00000000E+00  0.00000000E+00
  0.00000000E+00  0.00000000E+00  0.00000000E+00
  0.00000000E+00  0.00000000E+00  0.00000000E+00
  0.00000000E+00  0.00000000E+00  0.00000000E+00
  0.00000000E+00  0.00000000E+00  0.00000000E+00
  0.00000000E+00  0.00000000E+00  0.00000000E+00
  0.00000000E+00  0.00000000E+00  0.00000000E+00
  0.00000000E+00  0.00000000E+00  0.00000000E+00
  0.00000000E+00  0.00000000E+00  0.00000000E+00
  0.00000000E+00  0.00000000E+00  0.00000000E+00
  0.00000000E+00  0.00000000E+00  0.00000000E+00
