Sodilite                                
   1.00000000000000     
     9.2720139032174753    0.0102363063455005    0.0102363524394549
     0.0102363524394549    9.2720139032174753    0.0102363063455005
     0.0102363063455005    0.0102363524394549    9.2720139032174753
   O    Na   Al   Si   Cl   K 
    24     3     6     6     2     5
Direct
  0.1401849295777903  0.4712193575371987  0.1498986284296203
  0.8530871002454727  0.5402044305182527  0.1581619643939099
  0.8613665302733957  0.4634376382014156  0.8512727368023332
  0.1487914022109947  0.5392710818738262  0.8442898377611142
  0.1498986284296203  0.1401849295777903  0.4712193575371987
  0.1581619643939099  0.8530871002454727  0.5402044305182527
  0.8512727368023332  0.8613665302733957  0.4634376382014156
  0.8442898377611142  0.1487914022109947  0.5392710818738262
  0.4712193575371987  0.1498986284296203  0.1401849295777903
  0.5402044305182527  0.1581619643939099  0.8530871002454727
  0.4634376382014156  0.8512727368023332  0.8613665302733957
  0.5392710818738262  0.8442898377611142  0.1487914022109947
  0.9688707767901249  0.6457280294457306  0.6551808646535099
  0.0328674158197449  0.3585453456671595  0.6539371011393805
  0.9708213769315986  0.3569677586714144  0.3468616838950830
  0.0314038730759201  0.6454375918156402  0.3496825702226958
  0.6457280294457306  0.6551808646535099  0.9688707767901249
  0.3585453456671595  0.6539371011393805  0.0328674158197449
  0.3569677586714144  0.3468616838950831  0.9708213769315986
  0.6454375918156402  0.3496825702226958  0.0314038730759201
  0.6551808646535099  0.9688707767901249  0.6457280294457306
  0.6539371011393805  0.0328674158197449  0.3585453456671595
  0.3468616838950830  0.9708213769315986  0.3569677586714144
  0.3496825702226958  0.0314038730759201  0.6454375918156402
  0.8032780843195362  0.8033525244133028  0.1898868210289322
  0.8033525244133028  0.1898868210289322  0.8032780843195362
  0.1898868210289322  0.8032780843195362  0.8033525244133028
  0.2513791414164870  0.5022756267366673 -0.0000545805056643
  0.7525783606644472  0.5023629601338252  0.0017785042823373
 -0.0000545805056643  0.2513791414164870  0.5022756267366673
  0.0017785042823373  0.7525783606644472  0.5023629601338252
  0.5022756267366673 -0.0000545805056643  0.2513791414164870
  0.5023629601338252  0.0017785042823373  0.7525783606644472
  0.2512501230467322 -0.0006813309723897  0.5032940163397627
  0.7517051424047836  0.0026553566875489  0.5019028620228595
  0.5032940163397627  0.2512501230467322 -0.0006813309723897
  0.5019028620228595  0.7517051424047836  0.0026553566875489
 -0.0006813309723897  0.5032940163397627  0.2512501230467322
  0.0026553566875489  0.5019028620228595  0.7517051424047836
 -0.0284937384384087 -0.0284937384384087 -0.0284937384384087
  0.5028718197702253  0.5028718197702253  0.5028718197702253
  0.1668080779766951  0.1668080779766951  0.1668080779766951
  0.6848327931641942  0.6848327931641942  0.6848327931641942
  0.3193368937293103  0.3184319942490131  0.6817585215764739
  0.6817585215764739  0.3193368937293103  0.3184319942490131
  0.3184319942490131  0.6817585215764739  0.3193368937293103
 
  0.00000000E+00  0.00000000E+00  0.00000000E+00
  0.00000000E+00  0.00000000E+00  0.00000000E+00
  0.00000000E+00  0.00000000E+00  0.00000000E+00
  0.00000000E+00  0.00000000E+00  0.00000000E+00
  0.00000000E+00  0.00000000E+00  0.00000000E+00
  0.00000000E+00  0.00000000E+00  0.00000000E+00
  0.00000000E+00  0.00000000E+00  0.00000000E+00
  0.00000000E+00  0.00000000E+00  0.00000000E+00
  0.00000000E+00  0.00000000E+00  0.00000000E+00
  0.00000000E+00  0.00000000E+00  0.00000000E+00
  0.00000000E+00  0.00000000E+00  0.00000000E+00
  0.00000000E+00  0.00000000E+00  0.00000000E+00
  0.00000000E+00  0.00000000E+00  0.00000000E+00
  0.00000000E+00  0.00000000E+00  0.00000000E+00
  0.00000000E+00  0.00000000E+00  0.00000000E+00
  0.00000000E+00  0.00000000E+00  0.00000000E+00
  0.00000000E+00  0.00000000E+00  0.00000000E+00
  0.00000000E+00  0.00000000E+00  0.00000000E+00
  0.00000000E+00  0.00000000E+00  0.00000000E+00
  0.00000000E+00  0.00000000E+00  0.00000000E+00
  0.00000000E+00  0.00000000E+00  0.00000000E+00
  0.00000000E+00  0.00000000E+00  0.00000000E+00
  0.00000000E+00  0.00000000E+00  0.00000000E+00
  0.00000000E+00  0.00000000E+00  0.00000000E+00
  0.00000000E+00  0.00000000E+00  0.00000000E+00
  0.00000000E+00  0.00000000E+00  0.00000000E+00
  0.00000000E+00  0.00000000E+00  0.00000000E+00
  0.00000000E+00  0.00000000E+00  0.00000000E+00
  0.00000000E+00  0.00000000E+00  0.00000000E+00
  0.00000000E+00  0.00000000E+00  0.00000000E+00
  0.00000000E+00  0.00000000E+00  0.00000000E+00
  0.00000000E+00  0.00000000E+00  0.00000000E+00
  0.00000000E+00  0.00000000E+00  0.00000000E+00
  0.00000000E+00  0.00000000E+00  0.00000000E+00
  0.00000000E+00  0.00000000E+00  0.00000000E+00
  0.00000000E+00  0.00000000E+00  0.00000000E+00
  0.00000000E+00  0.00000000E+00  0.00000000E+00
  0.00000000E+00  0.00000000E+00  0.00000000E+00
  0.00000000E+00  0.00000000E+00  0.00000000E+00
  0.00000000E+00  0.00000000E+00  0.00000000E+00
  0.00000000E+00  0.00000000E+00  0.00000000E+00
  0.00000000E+00  0.00000000E+00  0.00000000E+00
  0.00000000E+00  0.00000000E+00  0.00000000E+00
  0.00000000E+00  0.00000000E+00  0.00000000E+00
  0.00000000E+00  0.00000000E+00  0.00000000E+00
  0.00000000E+00  0.00000000E+00  0.00000000E+00
