Sodilite                                
   1.00000000000000     
     9.2111830624931841   -0.0130074206089347   -0.0061975459963158
    -0.0130101979937223    9.2124380410310689    0.0057453868033232
    -0.0062170236722567    0.0057563145943346    9.2316984385733782
   O    Na   Al   Si   Cl   K 
    24     3     6     6     2     5
Direct
  0.1521300150310236  0.4651161117246613  0.1568931253140409
  0.8626794493005417  0.5305551431048298  0.1448445016358154
  0.8521367702866292  0.4500844181053128  0.8389797045764011
  0.1357438981512569  0.5364561664170260  0.8531989179322834
  0.1447319747498809  0.1336398835642498  0.4652898897073811
  0.1635655901685654  0.8470674654938052  0.5363386364943393
  0.8590732107297362  0.8649405147040597  0.4655693886682165
  0.8388976244926786  0.1506700007314906  0.5457674400459032
  0.4685815144065099  0.1462714506663756  0.1347417524339483
  0.5485770896242830  0.1569368651008763  0.8487554538270289
  0.4646039075770270  0.8537114897082163  0.8617846900767496
  0.5360896765938272  0.8382754413171799  0.1477564472248828
  0.9559456613296049  0.6427487067306606  0.6549881196262866
  0.0482347125527022  0.3588611245818762  0.6486819280979010
  0.9657299763622043  0.3525867766478241  0.3453919392464491
  0.0327174511271938  0.6411538385134948  0.3475416261877473
  0.6571757936856694  0.6621876232937757  0.9540936009808053
  0.3692292227437945  0.6401420275872509  0.0287288471814885
  0.3466859454282988  0.3326008129170702  0.9530137227106772
  0.6303236094817419  0.3598215596690591  0.0353472824568077
  0.6514290356469070  0.9510545783840548  0.6398759450179673
  0.6572034724594332  0.0344257330850048  0.3553765786790890
  0.3506525429704541  0.9681715986409833  0.3571474911983611
  0.3474617118948659  0.0438589574378701  0.6450599694050607
  0.7924730246910223  0.2065614313496822  0.7922892979512796
  0.6970948399483798  0.6971695518102291  0.6991338356198501
  0.3025623388186659  0.3020005457870215  0.6980566028792710
  0.2522693777988765  0.4934897370171092 -0.0032655440089934
  0.7514493184536036  0.4995520307618035 -0.0068826003148874
 -0.0012446917926957  0.2483544542870790  0.5016502071920684
  0.0033573717805530  0.7477264961359746  0.5020662488665786
  0.5039565047252937 -0.0027666250585924  0.2479727599709365
  0.5032415103369396  0.0008863594057190  0.7482231952494317
  0.2521013566239822 -0.0020975889960705  0.5013513958535277
  0.7518433715826166  0.0003443867040895  0.5018562806035120
  0.4994947838379984  0.2485362463823656 -0.0072024529672038
  0.5067098104526754  0.7479642152429212 -0.0027239735367420
  0.0030908891264748  0.4968218906085274  0.2482998963076672
 -0.0015370909816463  0.4966714612404836  0.7487010281082718
 -0.0383577966134513  0.0381347551136367 -0.0420283322660271
  0.5020706842864316  0.4976835966301295  0.5698736886799324
  0.1715816117253197  0.1692531335970696  0.1717346830794191
  0.8316237516708209  0.8279315730164513  0.1721267700023336
  0.1737593780802413  0.8266362302411047  0.8287566083497203
  0.6676952260931164  0.3323161880158031  0.3309802973684409
  0.3351645725599522  0.6654916425804540  0.3338631082859805
 
  0.00000000E+00  0.00000000E+00  0.00000000E+00
  0.00000000E+00  0.00000000E+00  0.00000000E+00
  0.00000000E+00  0.00000000E+00  0.00000000E+00
  0.00000000E+00  0.00000000E+00  0.00000000E+00
  0.00000000E+00  0.00000000E+00  0.00000000E+00
  0.00000000E+00  0.00000000E+00  0.00000000E+00
  0.00000000E+00  0.00000000E+00  0.00000000E+00
  0.00000000E+00  0.00000000E+00  0.00000000E+00
  0.00000000E+00  0.00000000E+00  0.00000000E+00
  0.00000000E+00  0.00000000E+00  0.00000000E+00
  0.00000000E+00  0.00000000E+00  0.00000000E+00
  0.00000000E+00  0.00000000E+00  0.00000000E+00
  0.00000000E+00  0.00000000E+00  0.00000000E+00
  0.00000000E+00  0.00000000E+00  0.00000000E+00
  0.00000000E+00  0.00000000E+00  0.00000000E+00
  0.00000000E+00  0.00000000E+00  0.00000000E+00
  0.00000000E+00  0.00000000E+00  0.00000000E+00
  0.00000000E+00  0.00000000E+00  0.00000000E+00
  0.00000000E+00  0.00000000E+00  0.00000000E+00
  0.00000000E+00  0.00000000E+00  0.00000000E+00
  0.00000000E+00  0.00000000E+00  0.00000000E+00
  0.00000000E+00  0.00000000E+00  0.00000000E+00
  0.00000000E+00  0.00000000E+00  0.00000000E+00
  0.00000000E+00  0.00000000E+00  0.00000000E+00
  0.00000000E+00  0.00000000E+00  0.00000000E+00
  0.00000000E+00  0.00000000E+00  0.00000000E+00
  0.00000000E+00  0.00000000E+00  0.00000000E+00
  0.00000000E+00  0.00000000E+00  0.00000000E+00
  0.00000000E+00  0.00000000E+00  0.00000000E+00
  0.00000000E+00  0.00000000E+00  0.00000000E+00
  0.00000000E+00  0.00000000E+00  0.00000000E+00
  0.00000000E+00  0.00000000E+00  0.00000000E+00
  0.00000000E+00  0.00000000E+00  0.00000000E+00
  0.00000000E+00  0.00000000E+00  0.00000000E+00
  0.00000000E+00  0.00000000E+00  0.00000000E+00
  0.00000000E+00  0.00000000E+00  0.00000000E+00
  0.00000000E+00  0.00000000E+00  0.00000000E+00
  0.00000000E+00  0.00000000E+00  0.00000000E+00
  0.00000000E+00  0.00000000E+00  0.00000000E+00
  0.00000000E+00  0.00000000E+00  0.00000000E+00
  0.00000000E+00  0.00000000E+00  0.00000000E+00
  0.00000000E+00  0.00000000E+00  0.00000000E+00
  0.00000000E+00  0.00000000E+00  0.00000000E+00
  0.00000000E+00  0.00000000E+00  0.00000000E+00
  0.00000000E+00  0.00000000E+00  0.00000000E+00
  0.00000000E+00  0.00000000E+00  0.00000000E+00
