Sodilite                                
   1.00000000000000     
     9.0941187191490300    0.0147448904968837   -0.0143328554820335
     0.0147413928533371    9.1076325266798293    0.0159288801220184
    -0.0143394433126715    0.0159298776668369    9.0959898512803932
   O    Na   Al   Si   Cl   K 
    24     5     6     6     2     3
Direct
  0.1541241057697183  0.4414970227924649  0.1643708443955452
  0.8721228982143344  0.5427210000387387  0.1407795586648540
  0.8473214386408898  0.4443223162985372  0.8373566615726685
  0.1311330819456213  0.5411594312280303  0.8628692136680239
  0.1518391012737433  0.1399783126351385  0.4436483539865894
  0.1526718240872333  0.8582410534501521  0.5473012065101132
  0.8490008774430570  0.8574413870714503  0.4567693230012167
  0.8509517866837829  0.1418293367052487  0.5548541174456241
  0.4440446335743207  0.1494214439784756  0.1405645024663461
  0.5560710037374664  0.1502727704623877  0.8606656677159092
  0.4562327454852880  0.8464229493138490  0.8585338470114280
  0.5461154753854883  0.8482350273961607  0.1443652262534229
  0.9582158562414983  0.6356353134966972  0.6495967969649918
  0.0576931850426857  0.3523525908028545  0.6554004280201653
  0.9456982012838990  0.3633628529352716  0.3561165719226574
  0.0533569983151992  0.6450060736568579  0.3433733585115533
  0.6393559446916998  0.6446792146191599  0.9594205186000974
  0.3526510781545675  0.6540481047778284  0.0529134791127823
  0.3660796311687124  0.3523143393983786  0.9442540797976078
  0.6451692358017939  0.3426446292449497  0.0584943124049398
  0.6456027117635615  0.9557717319058942  0.6365942772643388
  0.6589763393522624  0.0549260192279385  0.3528792586074976
  0.3561998778723219  0.9466821842496475  0.3654406112582883
  0.3429873833801386  0.0542009733016801  0.6478587592041207
  0.1973729458735397  0.1943234358682563  0.1970571253331035
  0.8076839001448403  0.1919488382229023  0.8065999565393225
  0.3109819109812419  0.3097785240666689  0.6886876965291807
  0.6897800711091875  0.3102626768049904  0.3117142292871591
  0.3141642708207291  0.6828576289666627  0.3132133319967319
  0.2516886038577356  0.4953896578107933  0.0059977333869862
  0.7518328096792026  0.4926231679022613 -0.0003902925281957
  0.0027311601783230  0.2489660431530991  0.5018701588963959
  0.0029618638473661  0.7477623247852750  0.4995343156192966
  0.5019978912688801  0.0010974726785935  0.2517482938867847
  0.4992813694432038  0.0013923136131833  0.7516718099537316
  0.2513850661488061  0.0003315169643042  0.5013438998017153
  0.7514221760574435  0.0022042607312509  0.5000513593963896
  0.5025464916596176  0.2485864372311668  0.0017206172124429
  0.4990263647104775  0.7477336683747549  0.0036885091554427
  0.0062004615693764  0.4968923856538673  0.2513603659214220
 -0.0007595243005681  0.4928262405440170  0.7516493013303492
  0.0027001200812143  0.0791919404072891  0.0025005854864836
  0.4665287538537413  0.4601988949219645  0.4663378333915920
  0.8405425895892420  0.8385479021526827  0.1604514554890775
  0.1598018209438071  0.8373646198094161  0.8412486396492690
  0.6565134671733075  0.6565539703488075  0.6575220999045365
 
  0.00000000E+00  0.00000000E+00  0.00000000E+00
  0.00000000E+00  0.00000000E+00  0.00000000E+00
  0.00000000E+00  0.00000000E+00  0.00000000E+00
  0.00000000E+00  0.00000000E+00  0.00000000E+00
  0.00000000E+00  0.00000000E+00  0.00000000E+00
  0.00000000E+00  0.00000000E+00  0.00000000E+00
  0.00000000E+00  0.00000000E+00  0.00000000E+00
  0.00000000E+00  0.00000000E+00  0.00000000E+00
  0.00000000E+00  0.00000000E+00  0.00000000E+00
  0.00000000E+00  0.00000000E+00  0.00000000E+00
  0.00000000E+00  0.00000000E+00  0.00000000E+00
  0.00000000E+00  0.00000000E+00  0.00000000E+00
  0.00000000E+00  0.00000000E+00  0.00000000E+00
  0.00000000E+00  0.00000000E+00  0.00000000E+00
  0.00000000E+00  0.00000000E+00  0.00000000E+00
  0.00000000E+00  0.00000000E+00  0.00000000E+00
  0.00000000E+00  0.00000000E+00  0.00000000E+00
  0.00000000E+00  0.00000000E+00  0.00000000E+00
  0.00000000E+00  0.00000000E+00  0.00000000E+00
  0.00000000E+00  0.00000000E+00  0.00000000E+00
  0.00000000E+00  0.00000000E+00  0.00000000E+00
  0.00000000E+00  0.00000000E+00  0.00000000E+00
  0.00000000E+00  0.00000000E+00  0.00000000E+00
  0.00000000E+00  0.00000000E+00  0.00000000E+00
  0.00000000E+00  0.00000000E+00  0.00000000E+00
  0.00000000E+00  0.00000000E+00  0.00000000E+00
  0.00000000E+00  0.00000000E+00  0.00000000E+00
  0.00000000E+00  0.00000000E+00  0.00000000E+00
  0.00000000E+00  0.00000000E+00  0.00000000E+00
  0.00000000E+00  0.00000000E+00  0.00000000E+00
  0.00000000E+00  0.00000000E+00  0.00000000E+00
  0.00000000E+00  0.00000000E+00  0.00000000E+00
  0.00000000E+00  0.00000000E+00  0.00000000E+00
  0.00000000E+00  0.00000000E+00  0.00000000E+00
  0.00000000E+00  0.00000000E+00  0.00000000E+00
  0.00000000E+00  0.00000000E+00  0.00000000E+00
  0.00000000E+00  0.00000000E+00  0.00000000E+00
  0.00000000E+00  0.00000000E+00  0.00000000E+00
  0.00000000E+00  0.00000000E+00  0.00000000E+00
  0.00000000E+00  0.00000000E+00  0.00000000E+00
  0.00000000E+00  0.00000000E+00  0.00000000E+00
  0.00000000E+00  0.00000000E+00  0.00000000E+00
  0.00000000E+00  0.00000000E+00  0.00000000E+00
  0.00000000E+00  0.00000000E+00  0.00000000E+00
  0.00000000E+00  0.00000000E+00  0.00000000E+00
  0.00000000E+00  0.00000000E+00  0.00000000E+00
