Sodilite                                
   1.00000000000000     
     9.1606846414256733   -0.0064619237012652    0.0256021851506781
    -0.0064619237012652    9.1606846414256733    0.0256021851506781
     0.0255900454870738    0.0255900454870738    9.1490660061986873
   O    Na   Al   Si   Cl   K 
    24     4     6     6     2     4
Direct
  0.1458585133087758  0.4602968822070541  0.1551982266031768
  0.8609706466801682  0.5517610295841492  0.1496787058451784
  0.8574234730954020  0.4500068360801380  0.8454683330393258
  0.1425033931266729  0.5411520714337487  0.8514498913311355
  0.1530690025393943  0.1453114176100845  0.4570682165669482
  0.1562822897089359  0.8597983360176547  0.5396201418232883
  0.8484481646038478  0.8601859849094317  0.4521859765538388
  0.8520642873981481  0.1432035571759427  0.5525409131886960
  0.4598107732412696  0.1425073844897847  0.1291213213260838
  0.5562166686370308  0.1662980643814074  0.8474780696551558
  0.4663527243980385  0.8620561340386359  0.8677655654637143
  0.5506563250402507  0.8400882782555138  0.1553439527284005
  0.9602968822070539  0.6458585133087760  0.6551982266031764
  0.0517610295841490  0.3609706466801680  0.6496787058451786
  0.9500068360801384  0.3574234730954017  0.3454683330393256
  0.0411520714337484  0.6425033931266727  0.3514498913311354
  0.6453114176100846  0.6530690025393943  0.9570682165669484
  0.3597983360176546  0.6562822897089360  0.0396201418232878
  0.3601859849094313  0.3484481646038477  0.9521859765538386
  0.6432035571759431  0.3520642873981482  0.0525409131886958
  0.6425073844897849  0.9598107732412698  0.6291213213260834
  0.6662980643814079  0.0562166686370307  0.3474780696551558
  0.3620561340386359  0.9663527243980383  0.3677655654637145
  0.3400882782555143  0.0506563250402510  0.6553439527284003
  0.8071119622367071  0.8081060245097866  0.1924929309726581
  0.8054166668777446  0.1971618809648560  0.8023839589205408
  0.3081060245097870  0.3071119622367072  0.6924929309726587
  0.6971618809648561  0.3054166668777447  0.3023839589205411
  0.2541211906264312  0.5014834682774959  0.0008546905978625
  0.7530923010815653  0.5014690347093252 -0.0000338561304749
  0.0014690347093252  0.2530923010815652  0.4999661438695250
  0.0014834682774957  0.7541211906264313  0.5008546905978627
  0.5097068126718942  0.0032277668753002  0.2501443897338407
  0.5032277668753001  0.0097068126718941  0.7501443897338413
  0.2538759132489674  0.0062707416289172  0.5043548882392136
  0.7527401648786638  0.0057570089858501  0.4960703962740417
  0.5057570089858500  0.2527401648786641 -0.0039296037259585
  0.5062707416289175  0.7538759132489674  0.0043548882392136
  0.0001718146354098  0.5025596549103176  0.2503796286053167
  0.0025596549103175  0.5001718146354101  0.7503796286053163
 -0.0718612986530561  0.0043518472729086 -0.0015778934598343
  0.5043518472729083  0.4281387013469440  0.4984221065401660
  0.1658168273989358  0.1647131987956575  0.1639328525051832
  0.1654741830472354  0.8369105970576074  0.8380786996167106
  0.6647131987956574  0.6658168273989358  0.6639328525051827
  0.3369105970576073  0.6654741830472350  0.3380786996167104
 
  0.00000000E+00  0.00000000E+00  0.00000000E+00
  0.00000000E+00  0.00000000E+00  0.00000000E+00
  0.00000000E+00  0.00000000E+00  0.00000000E+00
  0.00000000E+00  0.00000000E+00  0.00000000E+00
  0.00000000E+00  0.00000000E+00  0.00000000E+00
  0.00000000E+00  0.00000000E+00  0.00000000E+00
  0.00000000E+00  0.00000000E+00  0.00000000E+00
  0.00000000E+00  0.00000000E+00  0.00000000E+00
  0.00000000E+00  0.00000000E+00  0.00000000E+00
  0.00000000E+00  0.00000000E+00  0.00000000E+00
  0.00000000E+00  0.00000000E+00  0.00000000E+00
  0.00000000E+00  0.00000000E+00  0.00000000E+00
  0.00000000E+00  0.00000000E+00  0.00000000E+00
  0.00000000E+00  0.00000000E+00  0.00000000E+00
  0.00000000E+00  0.00000000E+00  0.00000000E+00
  0.00000000E+00  0.00000000E+00  0.00000000E+00
  0.00000000E+00  0.00000000E+00  0.00000000E+00
  0.00000000E+00  0.00000000E+00  0.00000000E+00
  0.00000000E+00  0.00000000E+00  0.00000000E+00
  0.00000000E+00  0.00000000E+00  0.00000000E+00
  0.00000000E+00  0.00000000E+00  0.00000000E+00
  0.00000000E+00  0.00000000E+00  0.00000000E+00
  0.00000000E+00  0.00000000E+00  0.00000000E+00
  0.00000000E+00  0.00000000E+00  0.00000000E+00
  0.00000000E+00  0.00000000E+00  0.00000000E+00
  0.00000000E+00  0.00000000E+00  0.00000000E+00
  0.00000000E+00  0.00000000E+00  0.00000000E+00
  0.00000000E+00  0.00000000E+00  0.00000000E+00
  0.00000000E+00  0.00000000E+00  0.00000000E+00
  0.00000000E+00  0.00000000E+00  0.00000000E+00
  0.00000000E+00  0.00000000E+00  0.00000000E+00
  0.00000000E+00  0.00000000E+00  0.00000000E+00
  0.00000000E+00  0.00000000E+00  0.00000000E+00
  0.00000000E+00  0.00000000E+00  0.00000000E+00
  0.00000000E+00  0.00000000E+00  0.00000000E+00
  0.00000000E+00  0.00000000E+00  0.00000000E+00
  0.00000000E+00  0.00000000E+00  0.00000000E+00
  0.00000000E+00  0.00000000E+00  0.00000000E+00
  0.00000000E+00  0.00000000E+00  0.00000000E+00
  0.00000000E+00  0.00000000E+00  0.00000000E+00
  0.00000000E+00  0.00000000E+00  0.00000000E+00
  0.00000000E+00  0.00000000E+00  0.00000000E+00
  0.00000000E+00  0.00000000E+00  0.00000000E+00
  0.00000000E+00  0.00000000E+00  0.00000000E+00
  0.00000000E+00  0.00000000E+00  0.00000000E+00
  0.00000000E+00  0.00000000E+00  0.00000000E+00
