Sodilite                                
   1.00000000000000     
     9.1413906969394993    0.0000000011354617    0.0000000000000000
    -0.0000000011354617    9.1413906969394993    0.0000000000000000
     0.0000000000000000    0.0000000000000000    9.1764889028972370
   O    Na   Al   Si   Cl   K 
    24     4     6     6     2     4
Direct
  0.1401228849925652  0.4466057562862606  0.1518515371508299
  0.8598771150074346  0.5533942437137396  0.1518515371508299
  0.8555578909136586  0.4618232701218892  0.8485331053550512
  0.1444421090863415  0.5381767298781114  0.8485331053550512
  0.1660005656207499  0.1555465259499078  0.4479857400081436
  0.1376388727765851  0.8713369786171167  0.5375877209996527
  0.8339994343792498  0.8444534740500922  0.4479857400081436
  0.8623611272234145  0.1286630213828833  0.5375877209996527
  0.4473475459551948  0.1504580366138457  0.1424503580252224
  0.5386697879523765  0.1534428836125946  0.8584197799786181
  0.4613302120476241  0.8465571163874055  0.8584197799786181
  0.5526524540448060  0.8495419633861540  0.1424503580252224
  0.9618232701218886  0.6444421090863414  0.6514668946449488
  0.0381767298781110  0.3555578909136585  0.6514668946449488
  0.9466057562862604  0.3598771150074346  0.3481484628491702
  0.0533942437137393  0.6401228849925654  0.3481484628491702
  0.6286630213828833  0.6376388727765855  0.9624122790003473
  0.3444534740500923  0.6660005656207502  0.0520142599918565
  0.3713369786171169  0.3623611272234148  0.9624122790003473
  0.6555465259499078  0.3339994343792497  0.0520142599918565
  0.6534428836125945  0.9613302120476235  0.6415802200213819
  0.6504580366138460  0.0526524540448055  0.3575496419747778
  0.3495419633861545  0.9473475459551940  0.3575496419747778
  0.3465571163874055  0.0386697879523762  0.6415802200213819
  0.1971181224480557  0.1964930688100337  0.1967102334610124
  0.8028818775519442  0.8035069311899666  0.1967102334610124
  0.6964930688100334  0.3028818775519444  0.3032897665389879
  0.3035069311899664  0.6971181224480558  0.3032897665389879
  0.2501338929239006  0.5035647272052711  0.0048647869284987
  0.7498661070760991  0.4964352727947288  0.0048647869284987
  0.0035647272052711  0.2498661070760994  0.4951352130715015
 -0.0035647272052711  0.7501338929239009  0.4951352130715015
  0.5000000000000000  0.0000000000000000  0.2500000000000000
  0.5000000000000000  0.0000000000000000  0.7500000000000000
  0.2498196170945724  0.0031335870722282  0.4955593406264596
  0.7501803829054277 -0.0031335870722282  0.4955593406264596
  0.5031335870722282  0.2501803829054275  0.0044406593735403
  0.4968664129277720  0.7498196170945723  0.0044406593735404
  0.0000000000000000  0.5000000000000000  0.2500000000000000
  0.0000000000000000  0.5000000000000000  0.7500000000000000
  0.0000000000000000  0.0000000000000000  0.0769085423200334
  0.5000000000000000  0.5000000000000000  0.4230914576799666
  0.8377571168897854  0.1625033926113364  0.8355442514818120
  0.1622428831102142  0.8374966073886634  0.8355442514818120
  0.6625033926113366  0.6622428831102146  0.6644557485181880
  0.3374966073886637  0.3377571168897859  0.6644557485181880
 
  0.00000000E+00  0.00000000E+00  0.00000000E+00
  0.00000000E+00  0.00000000E+00  0.00000000E+00
  0.00000000E+00  0.00000000E+00  0.00000000E+00
  0.00000000E+00  0.00000000E+00  0.00000000E+00
  0.00000000E+00  0.00000000E+00  0.00000000E+00
  0.00000000E+00  0.00000000E+00  0.00000000E+00
  0.00000000E+00  0.00000000E+00  0.00000000E+00
  0.00000000E+00  0.00000000E+00  0.00000000E+00
  0.00000000E+00  0.00000000E+00  0.00000000E+00
  0.00000000E+00  0.00000000E+00  0.00000000E+00
  0.00000000E+00  0.00000000E+00  0.00000000E+00
  0.00000000E+00  0.00000000E+00  0.00000000E+00
  0.00000000E+00  0.00000000E+00  0.00000000E+00
  0.00000000E+00  0.00000000E+00  0.00000000E+00
  0.00000000E+00  0.00000000E+00  0.00000000E+00
  0.00000000E+00  0.00000000E+00  0.00000000E+00
  0.00000000E+00  0.00000000E+00  0.00000000E+00
  0.00000000E+00  0.00000000E+00  0.00000000E+00
  0.00000000E+00  0.00000000E+00  0.00000000E+00
  0.00000000E+00  0.00000000E+00  0.00000000E+00
  0.00000000E+00  0.00000000E+00  0.00000000E+00
  0.00000000E+00  0.00000000E+00  0.00000000E+00
  0.00000000E+00  0.00000000E+00  0.00000000E+00
  0.00000000E+00  0.00000000E+00  0.00000000E+00
  0.00000000E+00  0.00000000E+00  0.00000000E+00
  0.00000000E+00  0.00000000E+00  0.00000000E+00
  0.00000000E+00  0.00000000E+00  0.00000000E+00
  0.00000000E+00  0.00000000E+00  0.00000000E+00
  0.00000000E+00  0.00000000E+00  0.00000000E+00
  0.00000000E+00  0.00000000E+00  0.00000000E+00
  0.00000000E+00  0.00000000E+00  0.00000000E+00
  0.00000000E+00  0.00000000E+00  0.00000000E+00
  0.00000000E+00  0.00000000E+00  0.00000000E+00
  0.00000000E+00  0.00000000E+00  0.00000000E+00
  0.00000000E+00  0.00000000E+00  0.00000000E+00
  0.00000000E+00  0.00000000E+00  0.00000000E+00
  0.00000000E+00  0.00000000E+00  0.00000000E+00
  0.00000000E+00  0.00000000E+00  0.00000000E+00
  0.00000000E+00  0.00000000E+00  0.00000000E+00
  0.00000000E+00  0.00000000E+00  0.00000000E+00
  0.00000000E+00  0.00000000E+00  0.00000000E+00
  0.00000000E+00  0.00000000E+00  0.00000000E+00
  0.00000000E+00  0.00000000E+00  0.00000000E+00
  0.00000000E+00  0.00000000E+00  0.00000000E+00
  0.00000000E+00  0.00000000E+00  0.00000000E+00
  0.00000000E+00  0.00000000E+00  0.00000000E+00
