Sodilite                                
   1.00000000000000     
     9.0369084206976567   -0.0274851784981671    0.0274851784981671
    -0.0274851784981671    9.0369084206976567   -0.0274851784981671
     0.0274851784981671   -0.0274851784981671    9.0369084206976584
   O    Na   Al   Si   Cl   K 
    24     6     6     6     2     2
Direct
  0.1335251223089188  0.4457892011940247  0.1437596137174232
  0.8515867555795760  0.5607239192846231  0.1518050184040304
  0.8635851490114611  0.4501862580602538  0.8525613689963012
  0.1438156897272995  0.5627033450295872  0.8411214474843707
  0.1518050184040304  0.1484132444204237  0.4392760807153766
  0.1437596137174232  0.8664748776910811  0.5542107988059749
  0.8411214474843707  0.8561843102727007  0.4372966549704128
  0.8525613689963012  0.1364148509885395  0.5498137419397463
  0.4372966549704128  0.1588785525156294  0.1438156897272995
  0.5498137419397463  0.1474386310036992  0.8635851490114611
  0.4392760807153766  0.8481949815959702  0.8515867555795760
  0.5542107988059749  0.8562403862825774  0.1335251223089188
  0.9392760807153769  0.6484132444204240  0.6518050184040298
  0.0542107988059752  0.3664748776910811  0.6437596137174226
  0.9372966549704128  0.3561843102727005  0.3411214474843704
  0.0498137419397462  0.6364148509885389  0.3525613689963009
  0.6438156897272993  0.6588785525156293  0.9372966549704128
  0.3635851490114603  0.6474386310036988  0.0498137419397462
  0.3515867555795762  0.3481949815959697  0.9392760807153769
  0.6335251223089189  0.3562403862825770  0.0542107988059752
  0.6437596137174226  0.9457892011940251  0.6335251223089189
  0.6518050184040298  0.0607239192846235  0.3515867555795762
  0.3525613689963009  0.9501862580602537  0.3635851490114603
  0.3411214474843704  0.0627033450295872  0.6438156897272993
  0.1824222856435739  0.1862773843175634  0.1841323042559712
  0.8137226156824361  0.8158676957440285  0.1824222856435739
  0.1841323042559712  0.8175777143564266  0.8137226156824361
  0.6841323042559715  0.6862773843175639  0.6824222856435734
  0.3137226156824369  0.3175777143564262  0.6841323042559715
  0.6824222856435734  0.3158676957440290  0.3137226156824369
  0.2463740582576247  0.5029131472131614 -0.0057315448203827
  0.7463740582576248  0.5057315448203825 -0.0029131472131615
 -0.0029131472131615  0.2536259417423753  0.4942684551796173
 -0.0057315448203827  0.7536259417423752  0.4970868527868386
  0.4970868527868386  0.0057315448203827  0.2463740582576247
  0.4942684551796173  0.0029131472131615  0.7463740582576248
  0.2465862996383243  0.0067692115021209  0.4989181814835305
  0.7465862996383243  0.0010818185164696  0.4932307884978792
  0.4932307884978792  0.2534137003616757 -0.0010818185164696
  0.4989181814835305  0.7534137003616757 -0.0067692115021209
 -0.0067692115021209  0.5010818185164695  0.2465862996383243
 -0.0010818185164696  0.5067692115021207  0.7465862996383243
  0.0358394464949884 -0.0358394464949884  0.0358394464949884
  0.5358394464949884  0.4641605535050116  0.5358394464949884
  0.8450612704183257  0.1549387295816749  0.8450612704183257
  0.3450612704183253  0.6549387295816743  0.3450612704183253
 
  0.00000000E+00  0.00000000E+00  0.00000000E+00
  0.00000000E+00  0.00000000E+00  0.00000000E+00
  0.00000000E+00  0.00000000E+00  0.00000000E+00
  0.00000000E+00  0.00000000E+00  0.00000000E+00
  0.00000000E+00  0.00000000E+00  0.00000000E+00
  0.00000000E+00  0.00000000E+00  0.00000000E+00
  0.00000000E+00  0.00000000E+00  0.00000000E+00
  0.00000000E+00  0.00000000E+00  0.00000000E+00
  0.00000000E+00  0.00000000E+00  0.00000000E+00
  0.00000000E+00  0.00000000E+00  0.00000000E+00
  0.00000000E+00  0.00000000E+00  0.00000000E+00
  0.00000000E+00  0.00000000E+00  0.00000000E+00
  0.00000000E+00  0.00000000E+00  0.00000000E+00
  0.00000000E+00  0.00000000E+00  0.00000000E+00
  0.00000000E+00  0.00000000E+00  0.00000000E+00
  0.00000000E+00  0.00000000E+00  0.00000000E+00
  0.00000000E+00  0.00000000E+00  0.00000000E+00
  0.00000000E+00  0.00000000E+00  0.00000000E+00
  0.00000000E+00  0.00000000E+00  0.00000000E+00
  0.00000000E+00  0.00000000E+00  0.00000000E+00
  0.00000000E+00  0.00000000E+00  0.00000000E+00
  0.00000000E+00  0.00000000E+00  0.00000000E+00
  0.00000000E+00  0.00000000E+00  0.00000000E+00
  0.00000000E+00  0.00000000E+00  0.00000000E+00
  0.00000000E+00  0.00000000E+00  0.00000000E+00
  0.00000000E+00  0.00000000E+00  0.00000000E+00
  0.00000000E+00  0.00000000E+00  0.00000000E+00
  0.00000000E+00  0.00000000E+00  0.00000000E+00
  0.00000000E+00  0.00000000E+00  0.00000000E+00
  0.00000000E+00  0.00000000E+00  0.00000000E+00
  0.00000000E+00  0.00000000E+00  0.00000000E+00
  0.00000000E+00  0.00000000E+00  0.00000000E+00
  0.00000000E+00  0.00000000E+00  0.00000000E+00
  0.00000000E+00  0.00000000E+00  0.00000000E+00
  0.00000000E+00  0.00000000E+00  0.00000000E+00
  0.00000000E+00  0.00000000E+00  0.00000000E+00
  0.00000000E+00  0.00000000E+00  0.00000000E+00
  0.00000000E+00  0.00000000E+00  0.00000000E+00
  0.00000000E+00  0.00000000E+00  0.00000000E+00
  0.00000000E+00  0.00000000E+00  0.00000000E+00
  0.00000000E+00  0.00000000E+00  0.00000000E+00
  0.00000000E+00  0.00000000E+00  0.00000000E+00
  0.00000000E+00  0.00000000E+00  0.00000000E+00
  0.00000000E+00  0.00000000E+00  0.00000000E+00
  0.00000000E+00  0.00000000E+00  0.00000000E+00
  0.00000000E+00  0.00000000E+00  0.00000000E+00
