Sodilite                                
   1.00000000000000     
     9.0976549527782353   -0.0116082570544216   -0.0450682713401492
    -0.0116230130482882    9.0997023414053952    0.0110023977053597
    -0.0450803078092304    0.0109840205997217    9.0995191654387639
   O    Na   Al   Si   Cl   K 
    24     5     6     6     2     3
Direct
  0.1566235753175894  0.4418727336043161  0.1614334567931451
  0.8716526997391755  0.5385883035450398  0.1387632487907505
  0.8472092535052054  0.4404578715417201  0.8339957572581148
  0.1287751099169125  0.5425744346089338  0.8605096942592925
  0.1528215171926113  0.1382357352329706  0.4432396029730629
  0.1525916376255964  0.8565719805671386  0.5478480994500453
  0.8518523990618715  0.8549195836911717  0.4537901107677204
  0.8489215521451672  0.1395526310554871  0.5524330519762087
  0.4480084322286495  0.1486021253105508  0.1402777422803909
  0.5551015463182321  0.1459621022410276  0.8576053811419909
  0.4520077134688804  0.8448425193565391  0.8568963720076737
  0.5477920516068441  0.8442245271609127  0.1403368404053802
  0.9500177500167597  0.6336864735191243  0.6471107298488623
  0.0575631134914462  0.3513383275209923  0.6533502990333171
  0.9546572255803972  0.3613001301071408  0.3542912378532762
  0.0546724613343115  0.6442148425750920  0.3405643922929100
  0.6488085008398811  0.6519828670554406  0.9471783978724800
  0.3631411361521895  0.6423942627236858  0.0488437060673987
  0.3554160524082611  0.3398399293086332  0.9404248061970447
  0.6358776964462984  0.3503525398038111  0.0467078917615722
  0.6565436302359481  0.9423727784197030  0.6456453218450702
  0.6490791577186731  0.0425555688210768  0.3618011440855533
  0.3463165043265275  0.9429442448153479  0.3531306442933962
  0.3536799558050219  0.0518597416441391  0.6355465065823322
  0.1948483383064480  0.1905592790136847  0.1926402913567727
  0.8059676103980518  0.1892981156757984  0.8054370453484294
  0.6848322948678751  0.6832180342815994  0.6869837799216135
  0.3108530921623865  0.3102054278838751  0.6875712337072210
  0.3146971640784273  0.6835190334843430  0.3137645683980750
  0.2516198270878421  0.4907819416614265  0.0003978058134143
  0.7521235489682394  0.4935908865661732 -0.0069435784591628
  0.0031701004020275  0.2454136018484837  0.5003772178098335
  0.0035291037011336  0.7442809652205643  0.4977587719317866
  0.4994207304131716 -0.0050887952905621  0.2482528409833661
  0.5024883127663987 -0.0049145371346519  0.7478812165837181
  0.2517984470062649 -0.0035543701198067  0.4957932788721434
  0.7518079450294683 -0.0053767960829288  0.5023879934952532
  0.4990291345500958  0.2453707190016724 -0.0037592436513409
  0.5027307807733876  0.7445542969952864 -0.0024353533531866
  0.0085751518661854  0.4950794681901203  0.2481814211958837
 -0.0025509735673142  0.4912159646899779  0.7484952115862578
  0.0013077134183065  0.0762140001556855 -0.0014899941188498
  0.4644486139615223  0.5299515645770271  0.5351925929397289
  0.8416619386918267  0.8370067043567013  0.1598965912654618
  0.1599939283243019  0.8360122438965778  0.8394816053319841
  0.6585165243115056  0.3414159968989560  0.3424102672046083
 
  0.00000000E+00  0.00000000E+00  0.00000000E+00
  0.00000000E+00  0.00000000E+00  0.00000000E+00
  0.00000000E+00  0.00000000E+00  0.00000000E+00
  0.00000000E+00  0.00000000E+00  0.00000000E+00
  0.00000000E+00  0.00000000E+00  0.00000000E+00
  0.00000000E+00  0.00000000E+00  0.00000000E+00
  0.00000000E+00  0.00000000E+00  0.00000000E+00
  0.00000000E+00  0.00000000E+00  0.00000000E+00
  0.00000000E+00  0.00000000E+00  0.00000000E+00
  0.00000000E+00  0.00000000E+00  0.00000000E+00
  0.00000000E+00  0.00000000E+00  0.00000000E+00
  0.00000000E+00  0.00000000E+00  0.00000000E+00
  0.00000000E+00  0.00000000E+00  0.00000000E+00
  0.00000000E+00  0.00000000E+00  0.00000000E+00
  0.00000000E+00  0.00000000E+00  0.00000000E+00
  0.00000000E+00  0.00000000E+00  0.00000000E+00
  0.00000000E+00  0.00000000E+00  0.00000000E+00
  0.00000000E+00  0.00000000E+00  0.00000000E+00
  0.00000000E+00  0.00000000E+00  0.00000000E+00
  0.00000000E+00  0.00000000E+00  0.00000000E+00
  0.00000000E+00  0.00000000E+00  0.00000000E+00
  0.00000000E+00  0.00000000E+00  0.00000000E+00
  0.00000000E+00  0.00000000E+00  0.00000000E+00
  0.00000000E+00  0.00000000E+00  0.00000000E+00
  0.00000000E+00  0.00000000E+00  0.00000000E+00
  0.00000000E+00  0.00000000E+00  0.00000000E+00
  0.00000000E+00  0.00000000E+00  0.00000000E+00
  0.00000000E+00  0.00000000E+00  0.00000000E+00
  0.00000000E+00  0.00000000E+00  0.00000000E+00
  0.00000000E+00  0.00000000E+00  0.00000000E+00
  0.00000000E+00  0.00000000E+00  0.00000000E+00
  0.00000000E+00  0.00000000E+00  0.00000000E+00
  0.00000000E+00  0.00000000E+00  0.00000000E+00
  0.00000000E+00  0.00000000E+00  0.00000000E+00
  0.00000000E+00  0.00000000E+00  0.00000000E+00
  0.00000000E+00  0.00000000E+00  0.00000000E+00
  0.00000000E+00  0.00000000E+00  0.00000000E+00
  0.00000000E+00  0.00000000E+00  0.00000000E+00
  0.00000000E+00  0.00000000E+00  0.00000000E+00
  0.00000000E+00  0.00000000E+00  0.00000000E+00
  0.00000000E+00  0.00000000E+00  0.00000000E+00
  0.00000000E+00  0.00000000E+00  0.00000000E+00
  0.00000000E+00  0.00000000E+00  0.00000000E+00
  0.00000000E+00  0.00000000E+00  0.00000000E+00
  0.00000000E+00  0.00000000E+00  0.00000000E+00
  0.00000000E+00  0.00000000E+00  0.00000000E+00
