Sodilite                                
   1.00000000000000     
     9.0947833347414146    0.0137306808750413   -0.0158391981560921
     0.0137230565129184    9.0936813638169429    0.0143885152349228
    -0.0158359401132474    0.0143838571443197    9.1078328389269583
   O    Na   Al   Si   Cl   K 
    24     5     6     6     2     3
Direct
  0.1442864833239498  0.4539650973344057  0.1516428898162134
  0.8583878952096970  0.5437231719116097  0.1536961684410332
  0.8607037045164928  0.4439212399876786  0.8497529789527197
  0.1405515884209203  0.5561024363296347  0.8505319456292487
  0.1406891307212689  0.1278112974236781  0.4574316041320589
  0.1644628748307787  0.8458668607115165  0.5587191286562054
  0.8630434380876371  0.8689910136181156  0.4589789058348304
  0.8372029566113951  0.1527872534289174  0.5557123187772299
  0.4568136266506627  0.1510954097797224  0.1426234990504034
  0.5548780392422322  0.1489361999914250  0.8582616357650217
  0.4434970543037443  0.8481189263220096  0.8599895450493176
  0.5472163791667041  0.8473809071566282  0.1416894507845987
  0.9441795826029774  0.6338313024647291  0.6476099536440921
  0.0585971987017180  0.3548125083098080  0.6574208221260849
  0.9595841582712775  0.3606977801931982  0.3553574063109334
  0.0529388907592279  0.6474262890481080  0.3459103076391493
  0.6479699326204643  0.6572053294391648  0.9456716866341340
  0.3655948347593981  0.6436232994404800  0.0532655644148756
  0.3526938068813525  0.3408136316412572  0.9449656592308284
  0.6364134592107127  0.3545778018378266  0.0440463728119220
  0.6554143767829836  0.9422054928238629  0.6476823072390426
  0.6496288667520700  0.0416145277599900  0.3643566809885608
  0.3432764141043401  0.9466088390438780  0.3549707919207190
  0.3562571479924440  0.0544387392626221  0.6365467288454442
  0.8066938817393363  0.1922705821578828  0.8082446305113768
  0.1968391357800363  0.8028016189119528  0.8059443492996294
  0.6886743674894337  0.6888330000972347  0.6900155845749342
  0.3118420115874287  0.3102683734065123  0.6895055781476603
  0.3134915880710578  0.6855834204237432  0.3169836146133906
  0.2517438797006909  0.4979318456612185 -0.0012196636420019
  0.7516623198511466  0.5008476842965419 -0.0014230750520257
 -0.0004287203717820  0.2481840444830815  0.5074301101023561
  0.0061008099517230  0.7483141770288636  0.5046595290249356
  0.4994757431561214 -0.0029471370759178  0.2522335126689075
  0.5018528223332308 -0.0027957076367009  0.7510467347460175
  0.2513662474208520 -0.0061951283686249  0.5031669072235060
  0.7516559220015332  0.0007476967127757  0.5072402769649527
  0.4999564681916024  0.2485744166119407 -0.0022624429168347
  0.5013587115493701  0.7486246364701060 -0.0004159177532051
  0.0036815176689145  0.5010405850533541  0.2522435503727952
  0.0017435050434213  0.4974600603527541  0.7513954297095523
  0.0024879819036418 -0.0026964759967302 -0.0790429450390903
  0.4664012367620852  0.5334113997948747  0.5397351864221123
  0.1603484035101482  0.1594819479467703  0.1616431614331651
  0.8411917793586922  0.8402939941065029  0.1627905916192822
  0.6575785467768663  0.3434096103015987  0.3432509442739161
 
  0.00000000E+00  0.00000000E+00  0.00000000E+00
  0.00000000E+00  0.00000000E+00  0.00000000E+00
  0.00000000E+00  0.00000000E+00  0.00000000E+00
  0.00000000E+00  0.00000000E+00  0.00000000E+00
  0.00000000E+00  0.00000000E+00  0.00000000E+00
  0.00000000E+00  0.00000000E+00  0.00000000E+00
  0.00000000E+00  0.00000000E+00  0.00000000E+00
  0.00000000E+00  0.00000000E+00  0.00000000E+00
  0.00000000E+00  0.00000000E+00  0.00000000E+00
  0.00000000E+00  0.00000000E+00  0.00000000E+00
  0.00000000E+00  0.00000000E+00  0.00000000E+00
  0.00000000E+00  0.00000000E+00  0.00000000E+00
  0.00000000E+00  0.00000000E+00  0.00000000E+00
  0.00000000E+00  0.00000000E+00  0.00000000E+00
  0.00000000E+00  0.00000000E+00  0.00000000E+00
  0.00000000E+00  0.00000000E+00  0.00000000E+00
  0.00000000E+00  0.00000000E+00  0.00000000E+00
  0.00000000E+00  0.00000000E+00  0.00000000E+00
  0.00000000E+00  0.00000000E+00  0.00000000E+00
  0.00000000E+00  0.00000000E+00  0.00000000E+00
  0.00000000E+00  0.00000000E+00  0.00000000E+00
  0.00000000E+00  0.00000000E+00  0.00000000E+00
  0.00000000E+00  0.00000000E+00  0.00000000E+00
  0.00000000E+00  0.00000000E+00  0.00000000E+00
  0.00000000E+00  0.00000000E+00  0.00000000E+00
  0.00000000E+00  0.00000000E+00  0.00000000E+00
  0.00000000E+00  0.00000000E+00  0.00000000E+00
  0.00000000E+00  0.00000000E+00  0.00000000E+00
  0.00000000E+00  0.00000000E+00  0.00000000E+00
  0.00000000E+00  0.00000000E+00  0.00000000E+00
  0.00000000E+00  0.00000000E+00  0.00000000E+00
  0.00000000E+00  0.00000000E+00  0.00000000E+00
  0.00000000E+00  0.00000000E+00  0.00000000E+00
  0.00000000E+00  0.00000000E+00  0.00000000E+00
  0.00000000E+00  0.00000000E+00  0.00000000E+00
  0.00000000E+00  0.00000000E+00  0.00000000E+00
  0.00000000E+00  0.00000000E+00  0.00000000E+00
  0.00000000E+00  0.00000000E+00  0.00000000E+00
  0.00000000E+00  0.00000000E+00  0.00000000E+00
  0.00000000E+00  0.00000000E+00  0.00000000E+00
  0.00000000E+00  0.00000000E+00  0.00000000E+00
  0.00000000E+00  0.00000000E+00  0.00000000E+00
  0.00000000E+00  0.00000000E+00  0.00000000E+00
  0.00000000E+00  0.00000000E+00  0.00000000E+00
  0.00000000E+00  0.00000000E+00  0.00000000E+00
  0.00000000E+00  0.00000000E+00  0.00000000E+00
