Sodilite                                
   1.00000000000000     
     9.0958493681265775    0.0159955845764968   -0.0146038141354446
     0.0159948106516675    9.1071120174017732    0.0147857858851762
    -0.0145967522808973    0.0147885605589504    9.0946776761375006
   O    Na   Al   Si   Cl   K 
    24     5     6     6     2     3
Direct
  0.1366999848212953  0.4556654599700574  0.1457198742918165
  0.8530714149758217  0.5548801973730707  0.1587975234420806
  0.8653024311782335  0.4466386196507135  0.8560340638297357
  0.1476854932478905  0.5541943148247311  0.8431434621785984
  0.1495996314844594  0.1356888374911733  0.4581536201922779
  0.1553488163173418  0.8524195577240007  0.5576666653692023
  0.8560850480683517  0.8633778503657199  0.4456772682439425
  0.8434190132620707  0.1450297349430973  0.5533715910818577
  0.4593618551906107  0.1446766187896715  0.1393380079884907
  0.5529256335233740  0.1539688497692332  0.8527372135791716
  0.4442318164419676  0.8522967144814054  0.8660921601612545
  0.5585399978190675  0.8426985049890822  0.1451484286885502
  0.9437001696351528  0.6398807520548464  0.6517768473421077
  0.0474651174189375  0.3581458916080760  0.6527114146581934
  0.9567158231360183  0.3575033678137144  0.3490432839322682
  0.0548560340409839  0.6419107391400075  0.3508744256048837
  0.6404683761616341  0.6493605316067378  0.9440228438490095
  0.3605423263811884  0.6503836046423125  0.0561192471830036
  0.3585904110899861  0.3464783093671787  0.9562194918707081
  0.6443824996204439  0.3482071822547513  0.0462401729197829
  0.6642601896255781  0.9415651447525566  0.6540091759089789
  0.6408861606651837  0.0427975716882598  0.3720118596271688
  0.3374343600378621  0.9443703736576544  0.3474076616610431
  0.3627659699317928  0.0412262652442778  0.6312066838453451
  0.8117844776475147  0.8103354697737771  0.1896745011925818
  0.8131848342206723  0.1825494371147120  0.8141711174648756
  0.1885432388266296  0.8098641161663007  0.8110100371173399
  0.6972217194706489  0.6943654657897850  0.6975280464996665
  0.3066018023391629  0.6919555372802612  0.3077022269726575
  0.2516490404218827  0.5013835978229865 -0.0006618889510593
  0.7517704297880946  0.5010396877267822  0.0019449175329110
 -0.0004329072015421  0.2477870406165692  0.5029470442823032
  0.0018500519906476  0.7489659326054802  0.5027133598572271
  0.4996349998217011 -0.0073169851675862  0.2518412941674791
  0.5059352097128514 -0.0046173670371473  0.7516888164838222
  0.2516451365670311 -0.0071390302195804  0.4992495708687800
  0.7513715800294821 -0.0030689435457820  0.5061432681830289
  0.5037113939269289  0.2477359182473073 -0.0009475733889192
  0.5016958134481032  0.7485837223216772  0.0025864589976034
  0.0001225904150864  0.5022329439598714  0.2514019344108815
  0.0013386203097209  0.5002456852417467  0.7513813104452870
 -0.0337335294995181 -0.0404075374476745 -0.0335410444930220
  0.5026075892722529  0.5794801385942112  0.5028265115571711
  0.1573858509400694  0.1562919256563255  0.1563766331824159
  0.3413755795280792  0.3376112399292471  0.6598030103095124
  0.6603979039492555  0.3387570103684014  0.3406374598579860
 
  0.00000000E+00  0.00000000E+00  0.00000000E+00
  0.00000000E+00  0.00000000E+00  0.00000000E+00
  0.00000000E+00  0.00000000E+00  0.00000000E+00
  0.00000000E+00  0.00000000E+00  0.00000000E+00
  0.00000000E+00  0.00000000E+00  0.00000000E+00
  0.00000000E+00  0.00000000E+00  0.00000000E+00
  0.00000000E+00  0.00000000E+00  0.00000000E+00
  0.00000000E+00  0.00000000E+00  0.00000000E+00
  0.00000000E+00  0.00000000E+00  0.00000000E+00
  0.00000000E+00  0.00000000E+00  0.00000000E+00
  0.00000000E+00  0.00000000E+00  0.00000000E+00
  0.00000000E+00  0.00000000E+00  0.00000000E+00
  0.00000000E+00  0.00000000E+00  0.00000000E+00
  0.00000000E+00  0.00000000E+00  0.00000000E+00
  0.00000000E+00  0.00000000E+00  0.00000000E+00
  0.00000000E+00  0.00000000E+00  0.00000000E+00
  0.00000000E+00  0.00000000E+00  0.00000000E+00
  0.00000000E+00  0.00000000E+00  0.00000000E+00
  0.00000000E+00  0.00000000E+00  0.00000000E+00
  0.00000000E+00  0.00000000E+00  0.00000000E+00
  0.00000000E+00  0.00000000E+00  0.00000000E+00
  0.00000000E+00  0.00000000E+00  0.00000000E+00
  0.00000000E+00  0.00000000E+00  0.00000000E+00
  0.00000000E+00  0.00000000E+00  0.00000000E+00
  0.00000000E+00  0.00000000E+00  0.00000000E+00
  0.00000000E+00  0.00000000E+00  0.00000000E+00
  0.00000000E+00  0.00000000E+00  0.00000000E+00
  0.00000000E+00  0.00000000E+00  0.00000000E+00
  0.00000000E+00  0.00000000E+00  0.00000000E+00
  0.00000000E+00  0.00000000E+00  0.00000000E+00
  0.00000000E+00  0.00000000E+00  0.00000000E+00
  0.00000000E+00  0.00000000E+00  0.00000000E+00
  0.00000000E+00  0.00000000E+00  0.00000000E+00
  0.00000000E+00  0.00000000E+00  0.00000000E+00
  0.00000000E+00  0.00000000E+00  0.00000000E+00
  0.00000000E+00  0.00000000E+00  0.00000000E+00
  0.00000000E+00  0.00000000E+00  0.00000000E+00
  0.00000000E+00  0.00000000E+00  0.00000000E+00
  0.00000000E+00  0.00000000E+00  0.00000000E+00
  0.00000000E+00  0.00000000E+00  0.00000000E+00
  0.00000000E+00  0.00000000E+00  0.00000000E+00
  0.00000000E+00  0.00000000E+00  0.00000000E+00
  0.00000000E+00  0.00000000E+00  0.00000000E+00
  0.00000000E+00  0.00000000E+00  0.00000000E+00
  0.00000000E+00  0.00000000E+00  0.00000000E+00
  0.00000000E+00  0.00000000E+00  0.00000000E+00
