Sodilite                                
   1.00000000000000     
     9.2660458496001485   -0.0002144451594022    0.0002144451594022
    -0.0002140401269822    9.2771380756056701   -0.0156520750224002
     0.0002140401269822   -0.0156520750224002    9.2771380756056701
   O    Na   Al   Si   Cl   K 
    24     2     6     6     2     6
Direct
  0.1349211796307980  0.4732051118855354  0.1462551460149231
  0.8459321349932837  0.5308623877406224  0.1593656422709747
  0.8633665929164958  0.4679847571611536  0.8563448084319942
  0.1488321665753713  0.5415759775128011  0.8375703437267843
  0.1431841489054159  0.1364743648634320  0.4739047351596120
  0.1577786163756597  0.8478634516720654  0.5403361797736558
  0.8529780931733876  0.8644054593403944  0.4674697984440492
  0.8357827442265112  0.1500811702415340  0.5319800398353292
  0.4699617513919880  0.1571521789750547  0.1484209123873174
  0.5280900029061140  0.1481128011461445  0.8597436583638709
  0.4548669104671422  0.8426817309656879  0.8516982912522202
  0.5284607697311234  0.8500473235490759  0.1378690011576872
  0.9548669104671421  0.6483017087477798  0.6573182690343121
  0.0284607697311238  0.3621309988423129  0.6499526764509241
  0.9699617513919881  0.3515790876126828  0.3428478210249451
  0.0280900029061137  0.6402563416361291  0.3518871988538556
  0.6488321665753719  0.6624296562732157  0.9584240224871989
  0.3633665929164961  0.6436551915680058  0.0320152428388466
  0.3459321349932838  0.3406343577290253  0.9691376122593776
  0.6349211796307979  0.3537448539850768  0.0267948881144647
  0.6577786163756596  0.9596638202263442  0.6521365483279346
  0.6431841489054158  0.0260952648403880  0.3635256351365676
  0.3357827442265114  0.9680199601646708  0.3499188297584660
  0.3529780931733871  0.0325302015559507  0.6355945406596056
  0.2059646828485157  0.7938901295954038  0.7927863532977837
  0.7059646828485155  0.7072136467022163  0.7061098704045962
  0.2463579445961066  0.5003632520323674 -0.0040896447825685
  0.7463579445961065  0.5040896447825680 -0.0003632520323675
 -0.0058923458693211  0.2500846188863533  0.5008150042034744
 -0.0020252685093987  0.7499802058421899  0.5038186531728713
  0.4941076541306790 -0.0008150042034749  0.2499153811136468
  0.4979747314906013 -0.0038186531728719  0.7500197941578101
  0.2466346377728632 -0.0038450699651012  0.5003538345448519
  0.7466346377728631 -0.0003538345448526  0.5038450699651011
  0.4945020393537332  0.2499411208514846  0.0002980463174519
  0.4982895674305303  0.7498519812888521 -0.0047667884156067
 -0.0054979606462668  0.4997019536825485  0.2500588791485151
 -0.0017104325694696  0.5047667884156068  0.7501480187111479
  0.0327792193052485 -0.0387387054223695 -0.0388422646773870
  0.5327792193052485  0.5388422646773869  0.5387387054223697
  0.1707123996825332  0.1723084853808775  0.1726953396841725
  0.8243549918875102  0.8255265500658414  0.1757832823438566
  0.8241670202083877  0.1761663666154109  0.8261652777174908
  0.3243549918875103  0.3242167176561436  0.6744734499341586
  0.6707123996825332  0.3273046603158273  0.3276915146191223
  0.3241670202083877  0.6738347222825092  0.3238336333845889
 
  0.00000000E+00  0.00000000E+00  0.00000000E+00
  0.00000000E+00  0.00000000E+00  0.00000000E+00
  0.00000000E+00  0.00000000E+00  0.00000000E+00
  0.00000000E+00  0.00000000E+00  0.00000000E+00
  0.00000000E+00  0.00000000E+00  0.00000000E+00
  0.00000000E+00  0.00000000E+00  0.00000000E+00
  0.00000000E+00  0.00000000E+00  0.00000000E+00
  0.00000000E+00  0.00000000E+00  0.00000000E+00
  0.00000000E+00  0.00000000E+00  0.00000000E+00
  0.00000000E+00  0.00000000E+00  0.00000000E+00
  0.00000000E+00  0.00000000E+00  0.00000000E+00
  0.00000000E+00  0.00000000E+00  0.00000000E+00
  0.00000000E+00  0.00000000E+00  0.00000000E+00
  0.00000000E+00  0.00000000E+00  0.00000000E+00
  0.00000000E+00  0.00000000E+00  0.00000000E+00
  0.00000000E+00  0.00000000E+00  0.00000000E+00
  0.00000000E+00  0.00000000E+00  0.00000000E+00
  0.00000000E+00  0.00000000E+00  0.00000000E+00
  0.00000000E+00  0.00000000E+00  0.00000000E+00
  0.00000000E+00  0.00000000E+00  0.00000000E+00
  0.00000000E+00  0.00000000E+00  0.00000000E+00
  0.00000000E+00  0.00000000E+00  0.00000000E+00
  0.00000000E+00  0.00000000E+00  0.00000000E+00
  0.00000000E+00  0.00000000E+00  0.00000000E+00
  0.00000000E+00  0.00000000E+00  0.00000000E+00
  0.00000000E+00  0.00000000E+00  0.00000000E+00
  0.00000000E+00  0.00000000E+00  0.00000000E+00
  0.00000000E+00  0.00000000E+00  0.00000000E+00
  0.00000000E+00  0.00000000E+00  0.00000000E+00
  0.00000000E+00  0.00000000E+00  0.00000000E+00
  0.00000000E+00  0.00000000E+00  0.00000000E+00
  0.00000000E+00  0.00000000E+00  0.00000000E+00
  0.00000000E+00  0.00000000E+00  0.00000000E+00
  0.00000000E+00  0.00000000E+00  0.00000000E+00
  0.00000000E+00  0.00000000E+00  0.00000000E+00
  0.00000000E+00  0.00000000E+00  0.00000000E+00
  0.00000000E+00  0.00000000E+00  0.00000000E+00
  0.00000000E+00  0.00000000E+00  0.00000000E+00
  0.00000000E+00  0.00000000E+00  0.00000000E+00
  0.00000000E+00  0.00000000E+00  0.00000000E+00
  0.00000000E+00  0.00000000E+00  0.00000000E+00
  0.00000000E+00  0.00000000E+00  0.00000000E+00
  0.00000000E+00  0.00000000E+00  0.00000000E+00
  0.00000000E+00  0.00000000E+00  0.00000000E+00
  0.00000000E+00  0.00000000E+00  0.00000000E+00
  0.00000000E+00  0.00000000E+00  0.00000000E+00
