Sodilite                                
   1.00000000000000     
     9.2771441902490022    0.0156475480552788   -0.0002046129108096
     0.0156475480552788    9.2771441902490022   -0.0002046129108096
    -0.0002050330961609   -0.0002050330961609    9.2660586132042493
   O    Na   Al   Si   Cl   K 
    24     2     6     6     2     6
Direct
  0.1355939066836590  0.4674689281907395  0.1470215401262583
  0.8499185564679743  0.5319812364607425  0.1642171800911777
  0.8635261973026315  0.4739044065234979  0.8568163729492621
  0.1521366446669381  0.5403369216068939  0.8422214430779227
  0.1499524690827503  0.1378691075620914  0.4715388722891600
  0.1573185049796860  0.8516980707091296  0.5451332335289881
  0.8518877985665504  0.8597436621734793  0.4719090674525847
  0.8428476014911680  0.1484208230929943  0.5300392174440869
  0.4691370408082607  0.1593648791832940  0.1540673835709929
  0.5267962987496070  0.1462552736134005  0.8650783706244917
  0.4584230896457547  0.8375708851874401  0.8511678265973094
  0.5320145326709430  0.8563442624139822  0.1366332909967230
  0.9674689281907397  0.6355939066836588  0.6470215401262581
  0.0319812364607428  0.3499185564679740  0.6642171800911778
  0.9739044065234983  0.3635261973026313  0.3568163729492621
  0.0403369216068940  0.6521366446669385  0.3422214430779219
  0.6378691075620913  0.6499524690827504  0.9715388722891608
  0.3516980707091295  0.6573185049796858  0.0451332335289882
  0.3597436621734789  0.3518877985665502  0.9719090674525848
  0.6484208230929945  0.3428476014911678  0.0300392174440866
  0.6593648791832939  0.9691370408082614  0.6540673835709930
  0.6462552736134006  0.0267962987496069  0.3650783706244922
  0.3375708851874399  0.9584230896457542  0.3511678265973096
  0.3563442624139820  0.0320145326709432  0.6366332909967223
  0.2061106322288837  0.7927862913382158  0.7940353636169062
  0.2927862913382158  0.7061106322288839  0.2940353636169065
  0.2500197520535380  0.5038192292163188  0.0020246378145704
  0.7499155180166505  0.5008148937362460  0.0058928712330151
  0.0008148937362460  0.2499155180166505  0.5058928712330151
  0.0038192292163190  0.7500197520535380  0.5020246378145701
  0.4959100339121928 -0.0003632629501751  0.2536422011062158
  0.4996367370498246 -0.0040899660878070  0.7536422011062157
  0.2501480166688807 -0.0047670342069218  0.5017102770062202
  0.7500587819251877  0.0002983507987980  0.5054976167105732
  0.5002983507987976  0.2500587819251875  0.0054976167105731
  0.4952329657930780  0.7501480166688808  0.0017102770062203
  0.0003535079611850  0.5038454668771112  0.2533652128684434
  0.0038454668771112  0.5003535079611849  0.7533652128684434
  0.0387425679671300 -0.0388458998373482 -0.0327781212003060
  0.4611541001626517  0.5387425679671302  0.4672218787996937
  0.1744724178354013  0.1757828193327617  0.1756444831697203
  0.8238343479843639  0.8261657957137801  0.1758322100094244
  0.8276935937978237  0.1726930817963684  0.8292894489162589
  0.6757828193327617  0.6744724178354015  0.6756444831697203
  0.3261657957137795  0.3238343479843638  0.6758322100094243
  0.6726930817963682  0.3276935937978241  0.3292894489162584
 
  0.00000000E+00  0.00000000E+00  0.00000000E+00
  0.00000000E+00  0.00000000E+00  0.00000000E+00
  0.00000000E+00  0.00000000E+00  0.00000000E+00
  0.00000000E+00  0.00000000E+00  0.00000000E+00
  0.00000000E+00  0.00000000E+00  0.00000000E+00
  0.00000000E+00  0.00000000E+00  0.00000000E+00
  0.00000000E+00  0.00000000E+00  0.00000000E+00
  0.00000000E+00  0.00000000E+00  0.00000000E+00
  0.00000000E+00  0.00000000E+00  0.00000000E+00
  0.00000000E+00  0.00000000E+00  0.00000000E+00
  0.00000000E+00  0.00000000E+00  0.00000000E+00
  0.00000000E+00  0.00000000E+00  0.00000000E+00
  0.00000000E+00  0.00000000E+00  0.00000000E+00
  0.00000000E+00  0.00000000E+00  0.00000000E+00
  0.00000000E+00  0.00000000E+00  0.00000000E+00
  0.00000000E+00  0.00000000E+00  0.00000000E+00
  0.00000000E+00  0.00000000E+00  0.00000000E+00
  0.00000000E+00  0.00000000E+00  0.00000000E+00
  0.00000000E+00  0.00000000E+00  0.00000000E+00
  0.00000000E+00  0.00000000E+00  0.00000000E+00
  0.00000000E+00  0.00000000E+00  0.00000000E+00
  0.00000000E+00  0.00000000E+00  0.00000000E+00
  0.00000000E+00  0.00000000E+00  0.00000000E+00
  0.00000000E+00  0.00000000E+00  0.00000000E+00
  0.00000000E+00  0.00000000E+00  0.00000000E+00
  0.00000000E+00  0.00000000E+00  0.00000000E+00
  0.00000000E+00  0.00000000E+00  0.00000000E+00
  0.00000000E+00  0.00000000E+00  0.00000000E+00
  0.00000000E+00  0.00000000E+00  0.00000000E+00
  0.00000000E+00  0.00000000E+00  0.00000000E+00
  0.00000000E+00  0.00000000E+00  0.00000000E+00
  0.00000000E+00  0.00000000E+00  0.00000000E+00
  0.00000000E+00  0.00000000E+00  0.00000000E+00
  0.00000000E+00  0.00000000E+00  0.00000000E+00
  0.00000000E+00  0.00000000E+00  0.00000000E+00
  0.00000000E+00  0.00000000E+00  0.00000000E+00
  0.00000000E+00  0.00000000E+00  0.00000000E+00
  0.00000000E+00  0.00000000E+00  0.00000000E+00
  0.00000000E+00  0.00000000E+00  0.00000000E+00
  0.00000000E+00  0.00000000E+00  0.00000000E+00
  0.00000000E+00  0.00000000E+00  0.00000000E+00
  0.00000000E+00  0.00000000E+00  0.00000000E+00
  0.00000000E+00  0.00000000E+00  0.00000000E+00
  0.00000000E+00  0.00000000E+00  0.00000000E+00
  0.00000000E+00  0.00000000E+00  0.00000000E+00
  0.00000000E+00  0.00000000E+00  0.00000000E+00
