Sodilite                                
   1.00000000000000     
     9.1823208993983165    0.0239270770859527    0.0257047031045316
     0.0239153079394019    9.1742749985760863   -0.0026440899001382
     0.0256891444566745   -0.0026410551721267    9.1730780978203796
   O    Na   Al   Si   Cl   K 
    24     4     6     6     2     4
Direct
  0.1387402817939147  0.4628261788595719  0.1529390631158476
  0.8549837807332940  0.5534582575601458  0.1567651279509082
  0.8605313961066777  0.4547041213433042  0.8539309526317593
  0.1468578460354804  0.5457381075429995  0.8466426903435388
  0.1480411187471475  0.1419815976163599  0.4638392008403519
  0.1558979315085860  0.8548016332689204  0.5466729538205196
  0.8494073464676651  0.8632183764899255  0.4536832853500593
  0.8459561754010824  0.1463541880052901  0.5526838897826553
  0.4596841927706941  0.1463576584577311  0.1364093276392723
  0.5497756469084336  0.1624907483168535  0.8529221881019108
  0.4584095137585950  0.8553516533380012  0.8645207767074216
  0.5478716093390886  0.8446612223604519  0.1514587111527327
  0.9570862288755524  0.6533613125934783  0.6635106034851046
  0.0388881574766326  0.3682714461831841  0.6466524216647399
  0.9515776855142879  0.3509946179182230  0.3411582839618655
  0.0375146749540510  0.6362659108741822  0.3605965715880204
  0.6353229105495585  0.6469358699180290  0.9614566281365118
  0.3503771279045562  0.6628317677839261  0.0432528077606253
  0.3652137748926948  0.3567771041406352  0.9654350733623976
  0.6514321775340491  0.3437356816045025  0.0507310332851571
  0.6441191607862392  0.9612435487905371  0.6354957319947996
  0.6604160277452792  0.0523212715340355  0.3521640228887315
  0.3540364030285759  0.9651867271712732  0.3661312261569689
  0.3415174572233898  0.0418793557164627  0.6538234702848629
  0.8062141653123971  0.8090809930731137  0.1905528715782542
  0.8077189577680093  0.1917649443740531  0.8087515198423234
  0.1817060974684821  0.8130286793778156  0.8131538699673663
  0.7054555338950108  0.2962543294417462  0.2951282724375179
  0.2500382024800037  0.5059947870637115  0.0033672760952390
  0.7507895708130581  0.5013875997249935  0.0055977740071556
 -0.0038767317041839  0.2531521007305545  0.5013297235561471
 -0.0015739679672170  0.7539130926687401  0.5060934393357600
  0.5043689551918722  0.0029156627166355  0.2531897778907154
  0.5000110207607233  0.0057931336393324  0.7536992853781070
  0.2497507011619053  0.0019974651346681  0.5071562124404947
  0.7501485602253049  0.0059983246931355  0.4997000513868702
  0.5058689616271802  0.2530033513964774  0.0021956809699982
  0.4988792426184157  0.7533548220969355  0.0055328471923799
 -0.0043146015837866  0.5013929773818182  0.2532813065901005
 -0.0000749667796897  0.5056073634907668  0.7534992754866682
 -0.0359999658188054 -0.0280793294099124 -0.0284221330078607
  0.5416264741323624  0.4624240488152859  0.4622405911837122
  0.1627315999288655  0.1620725314863832  0.1627778667187466
  0.6681581127230080  0.6729241823233086  0.6726844328929119
  0.3299283832505278  0.3333191685890484  0.6713033508812410
  0.3287870684410288  0.6709514138033661  0.3343106651693872
 
  0.00000000E+00  0.00000000E+00  0.00000000E+00
  0.00000000E+00  0.00000000E+00  0.00000000E+00
  0.00000000E+00  0.00000000E+00  0.00000000E+00
  0.00000000E+00  0.00000000E+00  0.00000000E+00
  0.00000000E+00  0.00000000E+00  0.00000000E+00
  0.00000000E+00  0.00000000E+00  0.00000000E+00
  0.00000000E+00  0.00000000E+00  0.00000000E+00
  0.00000000E+00  0.00000000E+00  0.00000000E+00
  0.00000000E+00  0.00000000E+00  0.00000000E+00
  0.00000000E+00  0.00000000E+00  0.00000000E+00
  0.00000000E+00  0.00000000E+00  0.00000000E+00
  0.00000000E+00  0.00000000E+00  0.00000000E+00
  0.00000000E+00  0.00000000E+00  0.00000000E+00
  0.00000000E+00  0.00000000E+00  0.00000000E+00
  0.00000000E+00  0.00000000E+00  0.00000000E+00
  0.00000000E+00  0.00000000E+00  0.00000000E+00
  0.00000000E+00  0.00000000E+00  0.00000000E+00
  0.00000000E+00  0.00000000E+00  0.00000000E+00
  0.00000000E+00  0.00000000E+00  0.00000000E+00
  0.00000000E+00  0.00000000E+00  0.00000000E+00
  0.00000000E+00  0.00000000E+00  0.00000000E+00
  0.00000000E+00  0.00000000E+00  0.00000000E+00
  0.00000000E+00  0.00000000E+00  0.00000000E+00
  0.00000000E+00  0.00000000E+00  0.00000000E+00
  0.00000000E+00  0.00000000E+00  0.00000000E+00
  0.00000000E+00  0.00000000E+00  0.00000000E+00
  0.00000000E+00  0.00000000E+00  0.00000000E+00
  0.00000000E+00  0.00000000E+00  0.00000000E+00
  0.00000000E+00  0.00000000E+00  0.00000000E+00
  0.00000000E+00  0.00000000E+00  0.00000000E+00
  0.00000000E+00  0.00000000E+00  0.00000000E+00
  0.00000000E+00  0.00000000E+00  0.00000000E+00
  0.00000000E+00  0.00000000E+00  0.00000000E+00
  0.00000000E+00  0.00000000E+00  0.00000000E+00
  0.00000000E+00  0.00000000E+00  0.00000000E+00
  0.00000000E+00  0.00000000E+00  0.00000000E+00
  0.00000000E+00  0.00000000E+00  0.00000000E+00
  0.00000000E+00  0.00000000E+00  0.00000000E+00
  0.00000000E+00  0.00000000E+00  0.00000000E+00
  0.00000000E+00  0.00000000E+00  0.00000000E+00
  0.00000000E+00  0.00000000E+00  0.00000000E+00
  0.00000000E+00  0.00000000E+00  0.00000000E+00
  0.00000000E+00  0.00000000E+00  0.00000000E+00
  0.00000000E+00  0.00000000E+00  0.00000000E+00
  0.00000000E+00  0.00000000E+00  0.00000000E+00
  0.00000000E+00  0.00000000E+00  0.00000000E+00
