Sodilite                                
   1.00000000000000     
     9.0978212651251997    0.0445491850644849   -0.0116672233712143
     0.0445594243279852    9.0998853110024349   -0.0111097914753296
    -0.0116790200090678   -0.0111259565942398    9.1013076150685777
   O    Na   Al   Si   Cl   K 
    24     5     6     6     2     3
Direct
  0.1445802205455198  0.4404406784219481  0.1601358074153268
  0.8641205329925687  0.5467112238900040  0.1496825029942278
  0.8512175352279934  0.4472435367469184  0.8480975732574250
  0.1368178769723802  0.5487884825060860  0.8576645093858605
  0.1463063012078219  0.1355163335639792  0.4482645958683942
  0.1537489426886430  0.8530187582991994  0.5569698733225230
  0.8509581946762358  0.8618814155811798  0.4575421905030857
  0.8434405149636802  0.1457370224017095  0.5575831842470171
  0.4425574356349704  0.1533266055648510  0.1487091102833139
  0.5499745963195802  0.1470842388928892  0.8663300517207438
  0.4453244573370763  0.8406691763391991  0.8558523954168508
  0.5453068375481819  0.8543131536539028  0.1387026728198177
  0.9522137897740848  0.6403299412013559  0.6557620573756333
  0.0479467106308172  0.3570033266947299  0.6550767858797534
  0.9450155536639308  0.3575479582867283  0.3540367629798455
  0.0518683165766405  0.6402747505957262  0.3514127278619198
  0.6283192257504147  0.6387975667777769  0.9614897036018474
  0.3433867857824460  0.6613380185105074  0.0579556979937928
  0.3711868606792124  0.3604089090021358  0.9574747313025519
  0.6527724202553471  0.3340776549094208  0.0594308288168231
  0.6481214743538584  0.9538157037915117  0.6451177500179598
  0.6510132377645541  0.0523155147806620  0.3605540831850200
  0.3472071202662933  0.9433024030737104  0.3617539766306553
  0.3474669360453149  0.0478207542928055  0.6433790627212679
  0.1892298811751856  0.1876917754442532  0.1898238889175421
  0.8150878708985816  0.1871781352262411  0.8165673689370903
  0.1855128958829181  0.8136720341400073  0.8162833551829776
  0.6940503326543819  0.3053304022135934  0.3105294523969325
  0.3050699113093506  0.6927225294189244  0.3093203267216770
  0.2483739169808233  0.5002724841035491  0.0091843650525730
  0.7478909889661203  0.4931716574410580  0.0064197465794354
 -0.0024483633021580  0.2478988446211062  0.5049127144691911
  0.0005246039906307  0.7482486981873202  0.5050901290683089
  0.4968447758710416  0.0003395553516269  0.2545974919641471
  0.4964922049685723 -0.0022345483123991  0.7557162436062023
  0.2482320048665069 -0.0042489656454969  0.5035492910061332
  0.7481855850089122  0.0024140514561820  0.5054496274309110
  0.5025655165874777  0.2484600988386902  0.0087907925916176
  0.4914080695916422  0.7482075902496309  0.0049128207197850
  0.0009678877965787  0.4962208721667756  0.2546140821293109
 -0.0027496961472645  0.4976086449461546  0.7554637657854387
  0.0354963141627602  0.0351392670825792 -0.0298943912873426
  0.4986823637797629  0.4984971078367701  0.4239410964024952
  0.8414716764350485  0.8424048534089947  0.1586666159484242
  0.6583750811433224  0.6598531008283338  0.6629880969406295
  0.3398642997222410  0.3393886832171680  0.6640944838348636
 
  0.00000000E+00  0.00000000E+00  0.00000000E+00
  0.00000000E+00  0.00000000E+00  0.00000000E+00
  0.00000000E+00  0.00000000E+00  0.00000000E+00
  0.00000000E+00  0.00000000E+00  0.00000000E+00
  0.00000000E+00  0.00000000E+00  0.00000000E+00
  0.00000000E+00  0.00000000E+00  0.00000000E+00
  0.00000000E+00  0.00000000E+00  0.00000000E+00
  0.00000000E+00  0.00000000E+00  0.00000000E+00
  0.00000000E+00  0.00000000E+00  0.00000000E+00
  0.00000000E+00  0.00000000E+00  0.00000000E+00
  0.00000000E+00  0.00000000E+00  0.00000000E+00
  0.00000000E+00  0.00000000E+00  0.00000000E+00
  0.00000000E+00  0.00000000E+00  0.00000000E+00
  0.00000000E+00  0.00000000E+00  0.00000000E+00
  0.00000000E+00  0.00000000E+00  0.00000000E+00
  0.00000000E+00  0.00000000E+00  0.00000000E+00
  0.00000000E+00  0.00000000E+00  0.00000000E+00
  0.00000000E+00  0.00000000E+00  0.00000000E+00
  0.00000000E+00  0.00000000E+00  0.00000000E+00
  0.00000000E+00  0.00000000E+00  0.00000000E+00
  0.00000000E+00  0.00000000E+00  0.00000000E+00
  0.00000000E+00  0.00000000E+00  0.00000000E+00
  0.00000000E+00  0.00000000E+00  0.00000000E+00
  0.00000000E+00  0.00000000E+00  0.00000000E+00
  0.00000000E+00  0.00000000E+00  0.00000000E+00
  0.00000000E+00  0.00000000E+00  0.00000000E+00
  0.00000000E+00  0.00000000E+00  0.00000000E+00
  0.00000000E+00  0.00000000E+00  0.00000000E+00
  0.00000000E+00  0.00000000E+00  0.00000000E+00
  0.00000000E+00  0.00000000E+00  0.00000000E+00
  0.00000000E+00  0.00000000E+00  0.00000000E+00
  0.00000000E+00  0.00000000E+00  0.00000000E+00
  0.00000000E+00  0.00000000E+00  0.00000000E+00
  0.00000000E+00  0.00000000E+00  0.00000000E+00
  0.00000000E+00  0.00000000E+00  0.00000000E+00
  0.00000000E+00  0.00000000E+00  0.00000000E+00
  0.00000000E+00  0.00000000E+00  0.00000000E+00
  0.00000000E+00  0.00000000E+00  0.00000000E+00
  0.00000000E+00  0.00000000E+00  0.00000000E+00
  0.00000000E+00  0.00000000E+00  0.00000000E+00
  0.00000000E+00  0.00000000E+00  0.00000000E+00
  0.00000000E+00  0.00000000E+00  0.00000000E+00
  0.00000000E+00  0.00000000E+00  0.00000000E+00
  0.00000000E+00  0.00000000E+00  0.00000000E+00
  0.00000000E+00  0.00000000E+00  0.00000000E+00
  0.00000000E+00  0.00000000E+00  0.00000000E+00
