Sodilite                                
   1.00000000000000     
     9.1607909611371579    0.0046837298179685   -0.0253960305099398
     0.0046837298179685    9.1607909611371579    0.0253960305099398
    -0.0253933325392432    0.0253933325392432    9.1522920945437019
   O    Na   Al   Si   Cl   K 
    24     4     6     6     2     4
Direct
  0.1562659663316195  0.4453123825696108  0.1616315702260600
  0.8713281782639617  0.5349618777549395  0.1426004721102077
  0.8487685747067494  0.4481263992784550  0.8351012779535499
  0.1321092436017245  0.5387244251745988  0.8608860091627867
  0.1544477974010930  0.1393472103223155  0.4456755563164268
  0.1542885155076844  0.8574385730911951  0.5437805437747976
  0.8513742953899356  0.8542685107510729  0.4624069382716394
  0.8508817028745721  0.1422429192817311  0.5469623956613306
  0.4507766558699583  0.1523236329825932  0.1430648841965365
  0.5512461526886258  0.1471616333442765  0.8595165978487866
  0.4597814861629466  0.8429019115484189  0.8550424338614906
  0.5415969703728498  0.8476861604997606  0.1413029537726146
  0.9650381222450605  0.6286718217360383  0.6426004721102081
  0.0546876174303894  0.3437340336683807  0.6616315702260597
  0.9612755748254012  0.3678907563982756  0.3608860091627863
  0.0518736007215448  0.6512314252932506  0.3351012779535500
  0.6457314892489271  0.6486257046100644  0.9624069382716394
  0.3577570807182687  0.6491182971254279  0.0469623956613306
  0.3606527896776843  0.3455522025989068  0.9456755563164264
  0.6425614269088049  0.3457114844923156  0.0437805437747976
  0.6523138395002394  0.9584030296271502  0.6413029537726143
  0.6570980884515811  0.0402185138370533  0.3550424338614906
  0.3528383666557232  0.9487538473113742  0.3595165978487865
  0.3476763670174067  0.0492233441300415  0.6430648841965365
  0.1974260652257723  0.1956556269329140  0.1961673163183646
  0.8079655055624282  0.1917464992616680  0.8063458701337008
  0.3043443730670861  0.3025739347742277  0.6961673163183644
  0.3082535007383321  0.6920344944375718  0.3063458701337005
  0.2528948397434906  0.4936038943467810  0.0026666434588593
  0.7543221786569578  0.4933545060597860 -0.0033230262535758
  0.0063961056532192  0.2471051602565094  0.5026666434588590
  0.0066454939402140  0.7456778213430422  0.4966769737464241
  0.5016494886317769 -0.0013273953645738  0.2497518747084241
  0.5013273953645740 -0.0016494886317768  0.7497518747084241
  0.2528388628818268 -0.0013951001161223  0.4985633645122906
  0.7537743159235327 -0.0014282328036284  0.5007580922488013
  0.5013951001161221  0.2471611371181731 -0.0014366354877093
  0.5014282328036286  0.7462256840764673  0.0007580922488013
  0.0102677488215464  0.4983875851969465  0.2498693836737616
  0.0016124148030533  0.4897322511784537  0.7498693836737619
  0.0041507924128173  0.0717284300003958  0.0011914573780583
  0.4282715699996041  0.4958492075871824  0.5011914573780578
  0.8373549814319313  0.8355491647024835  0.1637227858647971
  0.1640716905160274  0.8332113941642090  0.8363146048002916
  0.6644508352975165  0.6626450185680687  0.6637227858647973
  0.6667886058357910  0.3359283094839726  0.3363146048002916
 
  0.00000000E+00  0.00000000E+00  0.00000000E+00
  0.00000000E+00  0.00000000E+00  0.00000000E+00
  0.00000000E+00  0.00000000E+00  0.00000000E+00
  0.00000000E+00  0.00000000E+00  0.00000000E+00
  0.00000000E+00  0.00000000E+00  0.00000000E+00
  0.00000000E+00  0.00000000E+00  0.00000000E+00
  0.00000000E+00  0.00000000E+00  0.00000000E+00
  0.00000000E+00  0.00000000E+00  0.00000000E+00
  0.00000000E+00  0.00000000E+00  0.00000000E+00
  0.00000000E+00  0.00000000E+00  0.00000000E+00
  0.00000000E+00  0.00000000E+00  0.00000000E+00
  0.00000000E+00  0.00000000E+00  0.00000000E+00
  0.00000000E+00  0.00000000E+00  0.00000000E+00
  0.00000000E+00  0.00000000E+00  0.00000000E+00
  0.00000000E+00  0.00000000E+00  0.00000000E+00
  0.00000000E+00  0.00000000E+00  0.00000000E+00
  0.00000000E+00  0.00000000E+00  0.00000000E+00
  0.00000000E+00  0.00000000E+00  0.00000000E+00
  0.00000000E+00  0.00000000E+00  0.00000000E+00
  0.00000000E+00  0.00000000E+00  0.00000000E+00
  0.00000000E+00  0.00000000E+00  0.00000000E+00
  0.00000000E+00  0.00000000E+00  0.00000000E+00
  0.00000000E+00  0.00000000E+00  0.00000000E+00
  0.00000000E+00  0.00000000E+00  0.00000000E+00
  0.00000000E+00  0.00000000E+00  0.00000000E+00
  0.00000000E+00  0.00000000E+00  0.00000000E+00
  0.00000000E+00  0.00000000E+00  0.00000000E+00
  0.00000000E+00  0.00000000E+00  0.00000000E+00
  0.00000000E+00  0.00000000E+00  0.00000000E+00
  0.00000000E+00  0.00000000E+00  0.00000000E+00
  0.00000000E+00  0.00000000E+00  0.00000000E+00
  0.00000000E+00  0.00000000E+00  0.00000000E+00
  0.00000000E+00  0.00000000E+00  0.00000000E+00
  0.00000000E+00  0.00000000E+00  0.00000000E+00
  0.00000000E+00  0.00000000E+00  0.00000000E+00
  0.00000000E+00  0.00000000E+00  0.00000000E+00
  0.00000000E+00  0.00000000E+00  0.00000000E+00
  0.00000000E+00  0.00000000E+00  0.00000000E+00
  0.00000000E+00  0.00000000E+00  0.00000000E+00
  0.00000000E+00  0.00000000E+00  0.00000000E+00
  0.00000000E+00  0.00000000E+00  0.00000000E+00
  0.00000000E+00  0.00000000E+00  0.00000000E+00
  0.00000000E+00  0.00000000E+00  0.00000000E+00
  0.00000000E+00  0.00000000E+00  0.00000000E+00
  0.00000000E+00  0.00000000E+00  0.00000000E+00
  0.00000000E+00  0.00000000E+00  0.00000000E+00
