Sodilite                                
   1.00000000000000     
     9.0332043054103686   -0.0002444913936991    0.0002444913936991
    -0.0002468852817984    9.0385958049909849    0.0321348462219712
     0.0002468852817984    0.0321348462219712    9.0385958049909849
   O    Na   Al   Si   Cl   K 
    24     6     6     6     2     2
Direct
  0.1456987370901622  0.4383981669218114  0.1549877551288242
  0.8669572763495200  0.5583920921000202  0.1459746979605512
  0.8554128008829530  0.4415236595276105  0.8437429206728320
  0.1384484140135482  0.5484348759739872  0.8556806578068566
  0.1573000339807373  0.1451302250494239  0.4378073695377246
  0.1485446044232260  0.8647096250224218  0.5498453713816100
  0.8462079841253674  0.8546250558316861  0.4421968997974416
  0.8580124259698932  0.1360241885524713  0.5570761810283246
  0.4415605778665813  0.1445742751885732  0.1336696524954545
  0.5618425563717687  0.1562491334176568  0.8551156097397202
  0.4541461575631981  0.8537548589377300  0.8641520751740838
  0.5610982562889373  0.8454664560299376  0.1474253441662486
  0.9541461575631978  0.6358479248259162  0.6462451410622700
  0.0610982562889375  0.3525746558337514  0.6545335439700624
  0.9415605778665812  0.3663303475045455  0.3554257248114268
  0.0618425563717689  0.6448843902602798  0.3437508665823432
  0.6384484140135491  0.6443193421931434  0.9515651240260128
  0.3554128008829530  0.6562570793271680  0.0584763404723898
  0.3669572763495200  0.3540253020394487  0.9416079078999798
  0.6456987370901622  0.3450122448711759  0.0616018330781886
  0.6485446044232261  0.9501546286183900  0.6352903749775782
  0.6573000339807369  0.0621926304622755  0.3548697749505763
  0.3580124259698938  0.9429238189716754  0.3639758114475289
  0.3462079841253671  0.0578031002025584  0.6453749441683139
  0.1887574894059658  0.1872285064322437  0.1866914778175619
  0.8165713835821045  0.8161791894878256  0.1854505992456930
  0.8174070108862185  0.1849580140413640  0.8149194746515089
  0.3165713835821042  0.3145494007543070  0.6838208105121744
  0.6887574894059656  0.3133085221824380  0.3127714935677560
  0.3174070108862183  0.6850805253484911  0.3150419859586361
  0.2534487389860841  0.4990477434659485  0.0036675668283503
  0.7534487389860836  0.4963324331716498  0.0009522565340515
  0.0053055522492859  0.2500838403970585  0.4992351787168789
  0.0027850563288841  0.7499230276596235  0.4960999455294917
  0.5053055522492859  0.0007648212831211  0.2499161596029413
  0.5027850563288840  0.0039000544705085  0.7500769723403765
  0.2532186574435251  0.0030656745599163  0.4989848921152575
  0.7532186574435243  0.0010151078847426  0.4969343254400835
  0.5046050372063531  0.2499716069464382 -0.0008985251493006
  0.5026984152281619  0.7500043695241617  0.0050057195642030
  0.0046050372063535  0.5008985251493010  0.2500283930535617
  0.0026984152281621  0.4949942804357970  0.7499956304758383
 -0.0344181557334079  0.0396369500731737  0.0393709001544690
  0.4655818442665922  0.4606290998455311  0.4603630499268265
  0.1543909894909312  0.8459615134009931  0.8471412841782932
  0.6543909894909314  0.6528587158217068  0.6540384865990069
 
  0.00000000E+00  0.00000000E+00  0.00000000E+00
  0.00000000E+00  0.00000000E+00  0.00000000E+00
  0.00000000E+00  0.00000000E+00  0.00000000E+00
  0.00000000E+00  0.00000000E+00  0.00000000E+00
  0.00000000E+00  0.00000000E+00  0.00000000E+00
  0.00000000E+00  0.00000000E+00  0.00000000E+00
  0.00000000E+00  0.00000000E+00  0.00000000E+00
  0.00000000E+00  0.00000000E+00  0.00000000E+00
  0.00000000E+00  0.00000000E+00  0.00000000E+00
  0.00000000E+00  0.00000000E+00  0.00000000E+00
  0.00000000E+00  0.00000000E+00  0.00000000E+00
  0.00000000E+00  0.00000000E+00  0.00000000E+00
  0.00000000E+00  0.00000000E+00  0.00000000E+00
  0.00000000E+00  0.00000000E+00  0.00000000E+00
  0.00000000E+00  0.00000000E+00  0.00000000E+00
  0.00000000E+00  0.00000000E+00  0.00000000E+00
  0.00000000E+00  0.00000000E+00  0.00000000E+00
  0.00000000E+00  0.00000000E+00  0.00000000E+00
  0.00000000E+00  0.00000000E+00  0.00000000E+00
  0.00000000E+00  0.00000000E+00  0.00000000E+00
  0.00000000E+00  0.00000000E+00  0.00000000E+00
  0.00000000E+00  0.00000000E+00  0.00000000E+00
  0.00000000E+00  0.00000000E+00  0.00000000E+00
  0.00000000E+00  0.00000000E+00  0.00000000E+00
  0.00000000E+00  0.00000000E+00  0.00000000E+00
  0.00000000E+00  0.00000000E+00  0.00000000E+00
  0.00000000E+00  0.00000000E+00  0.00000000E+00
  0.00000000E+00  0.00000000E+00  0.00000000E+00
  0.00000000E+00  0.00000000E+00  0.00000000E+00
  0.00000000E+00  0.00000000E+00  0.00000000E+00
  0.00000000E+00  0.00000000E+00  0.00000000E+00
  0.00000000E+00  0.00000000E+00  0.00000000E+00
  0.00000000E+00  0.00000000E+00  0.00000000E+00
  0.00000000E+00  0.00000000E+00  0.00000000E+00
  0.00000000E+00  0.00000000E+00  0.00000000E+00
  0.00000000E+00  0.00000000E+00  0.00000000E+00
  0.00000000E+00  0.00000000E+00  0.00000000E+00
  0.00000000E+00  0.00000000E+00  0.00000000E+00
  0.00000000E+00  0.00000000E+00  0.00000000E+00
  0.00000000E+00  0.00000000E+00  0.00000000E+00
  0.00000000E+00  0.00000000E+00  0.00000000E+00
  0.00000000E+00  0.00000000E+00  0.00000000E+00
  0.00000000E+00  0.00000000E+00  0.00000000E+00
  0.00000000E+00  0.00000000E+00  0.00000000E+00
  0.00000000E+00  0.00000000E+00  0.00000000E+00
  0.00000000E+00  0.00000000E+00  0.00000000E+00
