Sodilite                                
   1.00000000000000     
     9.2312841862099404    0.0057866767089323    0.0062868816333169
     0.0057759066372974    9.2120051204584161    0.0129983226530399
     0.0062674131201502    0.0129955229585870    9.2107587858215876
   O    Na   Al   Si   Cl   K 
    24     3     6     6     2     5
Direct
  0.1446246819358785  0.4655907715348825  0.1571877277525273
  0.8601225590146701  0.5489501622389678  0.1514281063406635
  0.8549316240688417  0.4561355443740284  0.8474649016378353
  0.1428498362165030  0.5318113967173410  0.8506681183951956
  0.1545951372179034  0.1474257553029225  0.4657442317601332
  0.1524530460280779  0.8588469105606013  0.5326985591504593
  0.8450201650087812  0.8572538871177274  0.4559438531154585
  0.8513269908337565  0.1411393878646998  0.5482389943850576
  0.4646593789550081  0.1401736125810250  0.1303316815860397
  0.5469852531807645  0.1673977505402541  0.8466951457355000
  0.4712918121489733  0.8598573169205210  0.8692209495371070
  0.5459117683388295  0.8378212353830250  0.1571769324880306
  0.9636616537262275  0.6529314785586553  0.6635578594124389
  0.0346921876821396  0.3663566235555082  0.6447321215278720
  0.9542194779471028  0.3493347232744818  0.3389029478103026
  0.0344103548002098  0.6350655929569551  0.3590793984085209
  0.6382263183025172  0.6462806826560145  0.9646029359912722
  0.3522570539052665  0.6617233915345067  0.0360768792569947
  0.3652582282384929  0.3537393109504997  0.9685947474952425
  0.6512420119962484  0.3430681196696163  0.0485932567902142
  0.6467885789697670  0.9635474868838295  0.6357417983996595
  0.6610170115090016  0.0499272958787554  0.3521414915118201
  0.3551559358349415  0.9694535471325462  0.3626781482215800
  0.3431130406231968  0.0348726373263747  0.6521245277890906
  0.8008777455667537  0.8028371229644868  0.1970915450900635
  0.8019538212780914  0.1979923133717621  0.8025648779949105
  0.7077145767006000  0.2934402892779964  0.2924724138309550
  0.2520075564888453  0.5027639155106716  0.0039619144436986
  0.7517744055872265  0.4991119130415620  0.0032428318499469
 -0.0016485032911587  0.2516373040694074  0.4987541413961415
 -0.0020744311861754  0.7522833021817917  0.5033605623416386
  0.5068902847856914  0.0004470913100049  0.2514469683916823
  0.5032759931179668  0.0065117395565428  0.7522766726738492
  0.2517039914664814  0.0031829718148570  0.5030924194649753
  0.7512997158100051  0.0033370133520846  0.4984704087838987
  0.5072167886848179  0.2514668637010224 -0.0004891521167793
  0.5027395405372078  0.7520352170439524  0.0067127827560575
 -0.0018673360074039  0.4996682103590421  0.2518436255542366
 -0.0013591194848899  0.5020975706962663  0.7521063370037936
 -0.0698104392141117  0.0022704472486019  0.0020246360970034
  0.5419538814290930  0.4618619396074645  0.4616396154903932
  0.1690292517345131  0.1676834884799720  0.1676926120254275
  0.1661758697992448  0.8344913734386830  0.8351484262763730
  0.6712327937794140  0.6733520932193755  0.6737436410740740
  0.3282493147413759  0.3307440063015011  0.6715909299841164
  0.3278501911933115  0.6720791919392133  0.3316264750945284
 
  0.00000000E+00  0.00000000E+00  0.00000000E+00
  0.00000000E+00  0.00000000E+00  0.00000000E+00
  0.00000000E+00  0.00000000E+00  0.00000000E+00
  0.00000000E+00  0.00000000E+00  0.00000000E+00
  0.00000000E+00  0.00000000E+00  0.00000000E+00
  0.00000000E+00  0.00000000E+00  0.00000000E+00
  0.00000000E+00  0.00000000E+00  0.00000000E+00
  0.00000000E+00  0.00000000E+00  0.00000000E+00
  0.00000000E+00  0.00000000E+00  0.00000000E+00
  0.00000000E+00  0.00000000E+00  0.00000000E+00
  0.00000000E+00  0.00000000E+00  0.00000000E+00
  0.00000000E+00  0.00000000E+00  0.00000000E+00
  0.00000000E+00  0.00000000E+00  0.00000000E+00
  0.00000000E+00  0.00000000E+00  0.00000000E+00
  0.00000000E+00  0.00000000E+00  0.00000000E+00
  0.00000000E+00  0.00000000E+00  0.00000000E+00
  0.00000000E+00  0.00000000E+00  0.00000000E+00
  0.00000000E+00  0.00000000E+00  0.00000000E+00
  0.00000000E+00  0.00000000E+00  0.00000000E+00
  0.00000000E+00  0.00000000E+00  0.00000000E+00
  0.00000000E+00  0.00000000E+00  0.00000000E+00
  0.00000000E+00  0.00000000E+00  0.00000000E+00
  0.00000000E+00  0.00000000E+00  0.00000000E+00
  0.00000000E+00  0.00000000E+00  0.00000000E+00
  0.00000000E+00  0.00000000E+00  0.00000000E+00
  0.00000000E+00  0.00000000E+00  0.00000000E+00
  0.00000000E+00  0.00000000E+00  0.00000000E+00
  0.00000000E+00  0.00000000E+00  0.00000000E+00
  0.00000000E+00  0.00000000E+00  0.00000000E+00
  0.00000000E+00  0.00000000E+00  0.00000000E+00
  0.00000000E+00  0.00000000E+00  0.00000000E+00
  0.00000000E+00  0.00000000E+00  0.00000000E+00
  0.00000000E+00  0.00000000E+00  0.00000000E+00
  0.00000000E+00  0.00000000E+00  0.00000000E+00
  0.00000000E+00  0.00000000E+00  0.00000000E+00
  0.00000000E+00  0.00000000E+00  0.00000000E+00
  0.00000000E+00  0.00000000E+00  0.00000000E+00
  0.00000000E+00  0.00000000E+00  0.00000000E+00
  0.00000000E+00  0.00000000E+00  0.00000000E+00
  0.00000000E+00  0.00000000E+00  0.00000000E+00
  0.00000000E+00  0.00000000E+00  0.00000000E+00
  0.00000000E+00  0.00000000E+00  0.00000000E+00
  0.00000000E+00  0.00000000E+00  0.00000000E+00
  0.00000000E+00  0.00000000E+00  0.00000000E+00
  0.00000000E+00  0.00000000E+00  0.00000000E+00
  0.00000000E+00  0.00000000E+00  0.00000000E+00
