Sodilite                                
   1.00000000000000     
     9.2317077815462962   -0.0057544056415416   -0.0062120373386680
    -0.0057434532584858    9.2124507161122189    0.0130164568340701
    -0.0061925487400868    0.0130136729122850    9.2111934715989214
   O    Na   Al   Si   Cl   K 
    24     3     6     6     2     5
Direct
  0.1428520228086784  0.4681728335162195  0.1493470248549123
  0.8549391742050487  0.5438588164487643  0.1525387727528501
  0.8601231614111857  0.4510547894627824  0.8485705686583536
  0.1446227165881890  0.5344246314811872  0.8427969475167293
  0.1524585448971249  0.1411542002255479  0.4672839368156519
  0.1546081932993301  0.8525864368762063  0.5342689013578893
  0.8513180370386885  0.8588605147063526  0.4517654048302586
  0.8450119021182381  0.1427477320592552  0.5440544997882896
  0.4712720388260302  0.1401430588598513  0.1307719348805389
  0.5459059248768581  0.1621867301137579  0.8428251257472689
  0.4646530674108046  0.8598200054682921  0.8696741613868074
  0.5469858862213884  0.8326015467430753  0.1533117964027922
  0.9542322428647442  0.6506683975276073  0.6611011025403967
  0.0344292445614858  0.3649383523973149  0.6409287296341916
  0.9636620399997217  0.3470695354223188  0.3364364465066299
  0.0347093731666467  0.6336420563152023  0.3552660031094620
  0.6512430447758644  0.6569354659124546  0.9514222045081991
  0.3652566599256304  0.6462728093807429  0.0314176278957931
  0.3522461199141236  0.3382772741578053  0.9639117550805749
  0.6382180233603885  0.3537090907599197  0.0353959979638422
  0.6610186484060375  0.9500834791730108  0.6478611182414828
  0.6468032468971112  0.0364557107426725  0.3642538180486741
  0.3431089884606113  0.9651177610507988  0.3478719678232327
  0.3551538775110221  0.0305547032225779  0.6373223375605087
  0.8019440889954433  0.8020023802215164  0.1974376408549364
  0.8008671911764284  0.1971700814356838  0.8029075246919291
  0.7077071973525860  0.7065581105606593  0.7075237582815687
  0.2520263622130200  0.4972345106602196 -0.0039567691091454
  0.7517767075329770  0.5008857546904258 -0.0032410488180765
 -0.0020667389841167  0.2477262320356652  0.4966435577092114
 -0.0016496815373359  0.7483547890720758  0.5012442287080795
  0.5032669255206018 -0.0065097314161681  0.2477305235121434
  0.5068820323745811 -0.0004484278635110  0.7485506822006192
  0.2517004636438841 -0.0031780073026735  0.4969099089313491
  0.7512992387798705 -0.0033290103726868  0.5015360542040100
  0.5027251669493008  0.2479643318384078 -0.0067092399395934
  0.5072020814506683  0.7485361781316215  0.0005038634834684
 -0.0013516248230886  0.4979032564484855  0.2478986814909301
 -0.0018568292481664  0.5003433569481057  0.7481566501258474
 -0.0698685046806996 -0.0023139935990332 -0.0020680642937929
  0.5420237149927146  0.5381329779834384  0.5383558779216310
  0.1661405807617098  0.1654944390935454  0.1648382209009642
  0.1690206917328194  0.8323152466225263  0.8323039179782894
  0.3278711828986383  0.3279300286250169  0.6683780798216448
  0.6712438111098796  0.3266363394417626  0.3262411316277289
  0.3282637622433333  0.6692552247211977  0.3284166358109276
 
  0.00000000E+00  0.00000000E+00  0.00000000E+00
  0.00000000E+00  0.00000000E+00  0.00000000E+00
  0.00000000E+00  0.00000000E+00  0.00000000E+00
  0.00000000E+00  0.00000000E+00  0.00000000E+00
  0.00000000E+00  0.00000000E+00  0.00000000E+00
  0.00000000E+00  0.00000000E+00  0.00000000E+00
  0.00000000E+00  0.00000000E+00  0.00000000E+00
  0.00000000E+00  0.00000000E+00  0.00000000E+00
  0.00000000E+00  0.00000000E+00  0.00000000E+00
  0.00000000E+00  0.00000000E+00  0.00000000E+00
  0.00000000E+00  0.00000000E+00  0.00000000E+00
  0.00000000E+00  0.00000000E+00  0.00000000E+00
  0.00000000E+00  0.00000000E+00  0.00000000E+00
  0.00000000E+00  0.00000000E+00  0.00000000E+00
  0.00000000E+00  0.00000000E+00  0.00000000E+00
  0.00000000E+00  0.00000000E+00  0.00000000E+00
  0.00000000E+00  0.00000000E+00  0.00000000E+00
  0.00000000E+00  0.00000000E+00  0.00000000E+00
  0.00000000E+00  0.00000000E+00  0.00000000E+00
  0.00000000E+00  0.00000000E+00  0.00000000E+00
  0.00000000E+00  0.00000000E+00  0.00000000E+00
  0.00000000E+00  0.00000000E+00  0.00000000E+00
  0.00000000E+00  0.00000000E+00  0.00000000E+00
  0.00000000E+00  0.00000000E+00  0.00000000E+00
  0.00000000E+00  0.00000000E+00  0.00000000E+00
  0.00000000E+00  0.00000000E+00  0.00000000E+00
  0.00000000E+00  0.00000000E+00  0.00000000E+00
  0.00000000E+00  0.00000000E+00  0.00000000E+00
  0.00000000E+00  0.00000000E+00  0.00000000E+00
  0.00000000E+00  0.00000000E+00  0.00000000E+00
  0.00000000E+00  0.00000000E+00  0.00000000E+00
  0.00000000E+00  0.00000000E+00  0.00000000E+00
  0.00000000E+00  0.00000000E+00  0.00000000E+00
  0.00000000E+00  0.00000000E+00  0.00000000E+00
  0.00000000E+00  0.00000000E+00  0.00000000E+00
  0.00000000E+00  0.00000000E+00  0.00000000E+00
  0.00000000E+00  0.00000000E+00  0.00000000E+00
  0.00000000E+00  0.00000000E+00  0.00000000E+00
  0.00000000E+00  0.00000000E+00  0.00000000E+00
  0.00000000E+00  0.00000000E+00  0.00000000E+00
  0.00000000E+00  0.00000000E+00  0.00000000E+00
  0.00000000E+00  0.00000000E+00  0.00000000E+00
  0.00000000E+00  0.00000000E+00  0.00000000E+00
  0.00000000E+00  0.00000000E+00  0.00000000E+00
  0.00000000E+00  0.00000000E+00  0.00000000E+00
  0.00000000E+00  0.00000000E+00  0.00000000E+00
