Sodilite                                
   1.00000000000000     
     9.1001908167386869    0.0113039517490472   -0.0455007310769991
     0.0113214834119916    9.1015532194036552   -0.0118382280973188
    -0.0454912607406080   -0.0118258016470425    9.0980130574471652
   O    Na   Al   Si   Cl   K 
    24     5     6     6     2     3
Direct
  0.1456804515557942  0.4424009767864864  0.1565250012962565
  0.8618137273498794  0.5424807526683888  0.1490891680278686
  0.8530788976314954  0.4430221827516867  0.8463074791309586
  0.1355656183117986  0.5517663911697851  0.8536270872060517
  0.1471205020856289  0.1336961779266940  0.4500205899667882
  0.1533495793323918  0.8512741276817012  0.5574847023812648
  0.8542879325547228  0.8612768245777204  0.4546889692739585
  0.8406358300254931  0.1441577508875513  0.5546702254033530
  0.4472286440685350  0.1519309384816344  0.1488018786371689
  0.5488108856633924  0.1423735065594232  0.8631594799657928
  0.4404518582322764  0.8398616464993948  0.8554076385036279
  0.5467054086899557  0.8503205686885326  0.1358948118152797
  0.9433316119485583  0.6382242640904954  0.6527718170805056
  0.0477801265548874  0.3565964086565667  0.6525347035109547
  0.9538526901348368  0.3549126246539800  0.3519038976651087
  0.0523247063037277  0.6394595318203915  0.3489661829962948
  0.6402721008036956  0.6486030219159680  0.9481382645935412
  0.3575815542991560  0.6459429582064254  0.0549849046591051
  0.3569759251293176  0.3449014548818466  0.9520754603577496
  0.6403006811273401  0.3442704343386823  0.0477618946881278
  0.6613126070639265  0.9420177172764663  0.6565654106811087
  0.6388166394643515  0.0385187401368987  0.3716375036151677
  0.3341273433830842  0.9405960114254543  0.3472950732417000
  0.3603961771450933  0.0425077334414221  0.6288450572178300
  0.1871482668150618  0.1834119481376159  0.1848890629452700
  0.8136950484313769  0.1837067446683751  0.8145198165755241
  0.1877059573361062  0.8101745747638476  0.8107462930266237
  0.6926935525789819  0.6906767249466955  0.6949013633013551
  0.3053641413250366  0.6894569002232608  0.3059591653048778
  0.2478875980369501  0.4950888899462049  0.0024532856330566
  0.7482482377124164  0.4949078576489116 -0.0005296843506068
 -0.0022443197174714  0.2442652089380576  0.5034997392259398
  0.0003446670304066  0.7454002694882840  0.5031634258763106
  0.4931675735129574 -0.0064126427094148  0.2521042115880948
  0.5002827289834365 -0.0091873499507227  0.7516181629316724
  0.2484458217227811 -0.0088097648416802  0.4974646208640808
  0.7482100731005962 -0.0049311153674728  0.5085851673722440
  0.4975892144068025  0.2445294298993330  0.0027527967892844
  0.4962119620084809  0.7453709149593452 -0.0009730610035726
  0.0024044465078001  0.4945498243433722  0.2518131843938796
 -0.0042421981649820  0.4964359914104644  0.7517732938164637
  0.0351332204061344  0.0298950783411878 -0.0354951531006727
  0.4984962271413874  0.5760768918279010  0.5013140992465315
  0.8423730488909404  0.8413347154833074  0.1585527178581079
  0.3393833569330564  0.3359404253581514  0.6601232499362903
  0.6598998761424053  0.3370057369613787  0.3416070398536809
 
  0.00000000E+00  0.00000000E+00  0.00000000E+00
  0.00000000E+00  0.00000000E+00  0.00000000E+00
  0.00000000E+00  0.00000000E+00  0.00000000E+00
  0.00000000E+00  0.00000000E+00  0.00000000E+00
  0.00000000E+00  0.00000000E+00  0.00000000E+00
  0.00000000E+00  0.00000000E+00  0.00000000E+00
  0.00000000E+00  0.00000000E+00  0.00000000E+00
  0.00000000E+00  0.00000000E+00  0.00000000E+00
  0.00000000E+00  0.00000000E+00  0.00000000E+00
  0.00000000E+00  0.00000000E+00  0.00000000E+00
  0.00000000E+00  0.00000000E+00  0.00000000E+00
  0.00000000E+00  0.00000000E+00  0.00000000E+00
  0.00000000E+00  0.00000000E+00  0.00000000E+00
  0.00000000E+00  0.00000000E+00  0.00000000E+00
  0.00000000E+00  0.00000000E+00  0.00000000E+00
  0.00000000E+00  0.00000000E+00  0.00000000E+00
  0.00000000E+00  0.00000000E+00  0.00000000E+00
  0.00000000E+00  0.00000000E+00  0.00000000E+00
  0.00000000E+00  0.00000000E+00  0.00000000E+00
  0.00000000E+00  0.00000000E+00  0.00000000E+00
  0.00000000E+00  0.00000000E+00  0.00000000E+00
  0.00000000E+00  0.00000000E+00  0.00000000E+00
  0.00000000E+00  0.00000000E+00  0.00000000E+00
  0.00000000E+00  0.00000000E+00  0.00000000E+00
  0.00000000E+00  0.00000000E+00  0.00000000E+00
  0.00000000E+00  0.00000000E+00  0.00000000E+00
  0.00000000E+00  0.00000000E+00  0.00000000E+00
  0.00000000E+00  0.00000000E+00  0.00000000E+00
  0.00000000E+00  0.00000000E+00  0.00000000E+00
  0.00000000E+00  0.00000000E+00  0.00000000E+00
  0.00000000E+00  0.00000000E+00  0.00000000E+00
  0.00000000E+00  0.00000000E+00  0.00000000E+00
  0.00000000E+00  0.00000000E+00  0.00000000E+00
  0.00000000E+00  0.00000000E+00  0.00000000E+00
  0.00000000E+00  0.00000000E+00  0.00000000E+00
  0.00000000E+00  0.00000000E+00  0.00000000E+00
  0.00000000E+00  0.00000000E+00  0.00000000E+00
  0.00000000E+00  0.00000000E+00  0.00000000E+00
  0.00000000E+00  0.00000000E+00  0.00000000E+00
  0.00000000E+00  0.00000000E+00  0.00000000E+00
  0.00000000E+00  0.00000000E+00  0.00000000E+00
  0.00000000E+00  0.00000000E+00  0.00000000E+00
  0.00000000E+00  0.00000000E+00  0.00000000E+00
  0.00000000E+00  0.00000000E+00  0.00000000E+00
  0.00000000E+00  0.00000000E+00  0.00000000E+00
  0.00000000E+00  0.00000000E+00  0.00000000E+00
