Sodilite                                
   1.00000000000000     
     8.9803046964574911   -0.0154747177231611   -0.0154747197469548
    -0.0154747197469548    8.9803046964574911    0.0154747177231611
    -0.0154747177231611    0.0154747197469548    8.9803046964574911
   O    Na   Al   Si   Cl   K 
    24     7     6     6     2     1
Direct
  0.1452622390772847  0.4355920706660847  0.1534439393179711
  0.8668751842914809  0.5606002179854422  0.1430442339092902
  0.8556144905267318  0.4349616179914721  0.8438043223007256
  0.1357172536628262  0.5526978316377509  0.8540068023800946
  0.1561956776992743  0.1443855094732686  0.4349616179914721
  0.1459931976199057  0.8642827463371736  0.5526978316377509
  0.8465560606820292  0.8547377609227150  0.4355920706660847
  0.8569557660907099  0.1331248157085187  0.5606002179854422
  0.4393997820145580  0.1430442339092902  0.1331248157085187
  0.5644079293339154  0.1534439393179711  0.8547377609227150
  0.4473021683622495  0.8540068023800946  0.8642827463371736
  0.5650383820085276  0.8438043223007256  0.1443855094732686
  0.9404418102672262  0.6387813898870803  0.6489893242462619
  0.0625396988251505  0.3582475332952506  0.6475423448625198
  0.9366604993135081  0.3611120952499019  0.3499529398372176
  0.0636979721690170  0.6386516369950194  0.3479813942839514
  0.6417524667047502  0.6475423448625198  0.9374603011748496
  0.3612186101129198  0.6489893242462619  0.0595581897327740
  0.3613483630049806  0.3479813942839514  0.9363020278309829
  0.6388879047500979  0.3499529398372176  0.0633395006864920
  0.6520186057160491  0.9363020278309829  0.6386516369950194
  0.6500470601627828  0.0633395006864920  0.3611120952499019
  0.3524576551374802  0.9374603011748496  0.3582475332952506
  0.3510106757537387  0.0595581897327740  0.6387813898870803
  0.1851895911343842  0.1829267736262350  0.1823659408418349
  0.8176340591581652  0.8148104088656158  0.1829267736262350
  0.8170732263737652  0.1823659408418349  0.8148104088656158
  0.6792620955166454  0.6764006959894583  0.6775677973992462
  0.3224322026007539  0.3207379044833544  0.6764006959894583
  0.6807537119994787  0.3192462880005215  0.3192462880005215
  0.3235993040105425  0.6775677973992462  0.3207379044833544
  0.2519587095051694  0.4965211057742168  0.0003067221538116
  0.7515408608527694  0.4966828846531353 -0.0025700764714066
  0.0025700764714066  0.2484591391472309  0.4966828846531353
 -0.0003067221538116  0.7480412904948305  0.4965211057742168
  0.5033171153468647 -0.0025700764714066  0.2484591391472309
  0.5034788942257831  0.0003067221538116  0.7480412904948305
  0.2518799129693042  0.0009308927069266  0.4960791574244808
  0.7516554526291483 -0.0029013879426152  0.4980423830670334
  0.5019576169329668  0.2483445473708519 -0.0029013879426152
  0.5039208425755187  0.7481200870306951  0.0009308927069266
  0.0029013879426152  0.4980423830670334  0.2483445473708519
 -0.0009308927069266  0.4960791574244808  0.7481200870306952
 -0.0401372002371700  0.0401372002371700  0.0401372002371700
  0.5021259054374869  0.4978740945625132  0.4978740945625132
  0.1507243961279478  0.8492756038720518  0.8492756038720519
 
  0.00000000E+00  0.00000000E+00  0.00000000E+00
  0.00000000E+00  0.00000000E+00  0.00000000E+00
  0.00000000E+00  0.00000000E+00  0.00000000E+00
  0.00000000E+00  0.00000000E+00  0.00000000E+00
  0.00000000E+00  0.00000000E+00  0.00000000E+00
  0.00000000E+00  0.00000000E+00  0.00000000E+00
  0.00000000E+00  0.00000000E+00  0.00000000E+00
  0.00000000E+00  0.00000000E+00  0.00000000E+00
  0.00000000E+00  0.00000000E+00  0.00000000E+00
  0.00000000E+00  0.00000000E+00  0.00000000E+00
  0.00000000E+00  0.00000000E+00  0.00000000E+00
  0.00000000E+00  0.00000000E+00  0.00000000E+00
  0.00000000E+00  0.00000000E+00  0.00000000E+00
  0.00000000E+00  0.00000000E+00  0.00000000E+00
  0.00000000E+00  0.00000000E+00  0.00000000E+00
  0.00000000E+00  0.00000000E+00  0.00000000E+00
  0.00000000E+00  0.00000000E+00  0.00000000E+00
  0.00000000E+00  0.00000000E+00  0.00000000E+00
  0.00000000E+00  0.00000000E+00  0.00000000E+00
  0.00000000E+00  0.00000000E+00  0.00000000E+00
  0.00000000E+00  0.00000000E+00  0.00000000E+00
  0.00000000E+00  0.00000000E+00  0.00000000E+00
  0.00000000E+00  0.00000000E+00  0.00000000E+00
  0.00000000E+00  0.00000000E+00  0.00000000E+00
  0.00000000E+00  0.00000000E+00  0.00000000E+00
  0.00000000E+00  0.00000000E+00  0.00000000E+00
  0.00000000E+00  0.00000000E+00  0.00000000E+00
  0.00000000E+00  0.00000000E+00  0.00000000E+00
  0.00000000E+00  0.00000000E+00  0.00000000E+00
  0.00000000E+00  0.00000000E+00  0.00000000E+00
  0.00000000E+00  0.00000000E+00  0.00000000E+00
  0.00000000E+00  0.00000000E+00  0.00000000E+00
  0.00000000E+00  0.00000000E+00  0.00000000E+00
  0.00000000E+00  0.00000000E+00  0.00000000E+00
  0.00000000E+00  0.00000000E+00  0.00000000E+00
  0.00000000E+00  0.00000000E+00  0.00000000E+00
  0.00000000E+00  0.00000000E+00  0.00000000E+00
  0.00000000E+00  0.00000000E+00  0.00000000E+00
  0.00000000E+00  0.00000000E+00  0.00000000E+00
  0.00000000E+00  0.00000000E+00  0.00000000E+00
  0.00000000E+00  0.00000000E+00  0.00000000E+00
  0.00000000E+00  0.00000000E+00  0.00000000E+00
  0.00000000E+00  0.00000000E+00  0.00000000E+00
  0.00000000E+00  0.00000000E+00  0.00000000E+00
  0.00000000E+00  0.00000000E+00  0.00000000E+00
  0.00000000E+00  0.00000000E+00  0.00000000E+00
