Sodilite                                
   1.00000000000000     
     9.2266958609742407   -0.0134380925456516   -0.0119792184305628
    -0.0134441184358861    9.2276946465061886   -0.0327613361746498
    -0.0119832242364119   -0.0327460324126648    9.2282228343834110
   O    Na   Al   Si   Cl   K 
    24     3     6     6     2     5
Direct
  0.1396914434644747  0.4592535134622812  0.1504487689990222
  0.8513040627398569  0.5333680089636315  0.1524890575276604
  0.8570738604382819  0.4624710469733847  0.8500594723026699
  0.1420327672019231  0.5450632678631844  0.8425669379780795
  0.1479498068760290  0.1412137500471503  0.4601808630006792
  0.1506419040814165  0.8536940164472367  0.5431001732336422
  0.8467481738855090  0.8582568769780815  0.4617866425230542
  0.8401971621067585  0.1436765858662384  0.5352743966029014
  0.4556614754990024  0.1604055231391084  0.1519620901542844
  0.5306363446209112  0.1419795339342768  0.8644790619881930
  0.4497095573424673  0.8380701403560148  0.8471865105932082
  0.5317117198059628  0.8536081412485160  0.1321979412392108
  0.9519010557343121  0.6484324353903139  0.6567018789765297
  0.0318434998247361  0.3619567727730444  0.6472564376455633
  0.9625606314069699  0.3496796549331384  0.3414842146294065
  0.0323604991148190  0.6374170128562437  0.3505025792394615
  0.6469966183145590  0.6602778162342714  0.9547843524683263
  0.3618463776903644  0.6425008918981848  0.0351194215829748
  0.3454041617406564  0.3401504359813972  0.9617718768333663
  0.6327254069757835  0.3514732971031082  0.0317130773801144
  0.6556522659294653  0.9561600432118037  0.6506568808676665
  0.6412421227234731  0.0298947371245880  0.3620026745714222
  0.3358399526095524  0.9605890275403668  0.3494054940078465
  0.3508647307614763  0.0365474110111648  0.6342520365417380
  0.1934108232130763  0.1914062902474824  0.1911928248452269
  0.1973690265688739  0.8025376338970959  0.8010516212158538
  0.7022098827493838  0.7037937956891418  0.7025937272321291
  0.2449023349466072  0.4975442329632003 -0.0035292605689828
  0.7444440195462693  0.5014393364145678 -0.0028436771609138
 -0.0052325497746903  0.2482316438066863  0.4977856989773788
 -0.0045821803767978  0.7486216031883959  0.5013235442259456
  0.4911705067382769 -0.0005953768457705  0.2478335982797637
  0.4954990241100976 -0.0059924320643257  0.7488538640933762
  0.2453595729406266 -0.0025996356421987  0.4971255337494663
  0.7448517268212929 -0.0031757110727375  0.5019452879781429
  0.4909823331831297  0.2480482147723801  0.0012334705233885
  0.4964803138482437  0.7486157541760419 -0.0072486222635376
 -0.0042895720341358  0.4958648228178322  0.2483406598623209
 -0.0046615037128213  0.5034226501425120  0.7487593904035303
  0.0641337556091349 -0.0034539413811251 -0.0036134969573099
  0.5333080117736686  0.5368088030739939  0.5367306770654007
  0.8312941508144630  0.8310317227482820  0.1680822479648095
  0.8305132916771728  0.1686838304691345  0.8324648452888593
  0.3251311148921781  0.3262658986050486  0.6714675433264492
  0.6693827949525369  0.3266787085588381  0.3279983943294976
  0.3257275206246532  0.6706822140987940  0.3250692867021845
 
  0.00000000E+00  0.00000000E+00  0.00000000E+00
  0.00000000E+00  0.00000000E+00  0.00000000E+00
  0.00000000E+00  0.00000000E+00  0.00000000E+00
  0.00000000E+00  0.00000000E+00  0.00000000E+00
  0.00000000E+00  0.00000000E+00  0.00000000E+00
  0.00000000E+00  0.00000000E+00  0.00000000E+00
  0.00000000E+00  0.00000000E+00  0.00000000E+00
  0.00000000E+00  0.00000000E+00  0.00000000E+00
  0.00000000E+00  0.00000000E+00  0.00000000E+00
  0.00000000E+00  0.00000000E+00  0.00000000E+00
  0.00000000E+00  0.00000000E+00  0.00000000E+00
  0.00000000E+00  0.00000000E+00  0.00000000E+00
  0.00000000E+00  0.00000000E+00  0.00000000E+00
  0.00000000E+00  0.00000000E+00  0.00000000E+00
  0.00000000E+00  0.00000000E+00  0.00000000E+00
  0.00000000E+00  0.00000000E+00  0.00000000E+00
  0.00000000E+00  0.00000000E+00  0.00000000E+00
  0.00000000E+00  0.00000000E+00  0.00000000E+00
  0.00000000E+00  0.00000000E+00  0.00000000E+00
  0.00000000E+00  0.00000000E+00  0.00000000E+00
  0.00000000E+00  0.00000000E+00  0.00000000E+00
  0.00000000E+00  0.00000000E+00  0.00000000E+00
  0.00000000E+00  0.00000000E+00  0.00000000E+00
  0.00000000E+00  0.00000000E+00  0.00000000E+00
  0.00000000E+00  0.00000000E+00  0.00000000E+00
  0.00000000E+00  0.00000000E+00  0.00000000E+00
  0.00000000E+00  0.00000000E+00  0.00000000E+00
  0.00000000E+00  0.00000000E+00  0.00000000E+00
  0.00000000E+00  0.00000000E+00  0.00000000E+00
  0.00000000E+00  0.00000000E+00  0.00000000E+00
  0.00000000E+00  0.00000000E+00  0.00000000E+00
  0.00000000E+00  0.00000000E+00  0.00000000E+00
  0.00000000E+00  0.00000000E+00  0.00000000E+00
  0.00000000E+00  0.00000000E+00  0.00000000E+00
  0.00000000E+00  0.00000000E+00  0.00000000E+00
  0.00000000E+00  0.00000000E+00  0.00000000E+00
  0.00000000E+00  0.00000000E+00  0.00000000E+00
  0.00000000E+00  0.00000000E+00  0.00000000E+00
  0.00000000E+00  0.00000000E+00  0.00000000E+00
  0.00000000E+00  0.00000000E+00  0.00000000E+00
  0.00000000E+00  0.00000000E+00  0.00000000E+00
  0.00000000E+00  0.00000000E+00  0.00000000E+00
  0.00000000E+00  0.00000000E+00  0.00000000E+00
  0.00000000E+00  0.00000000E+00  0.00000000E+00
  0.00000000E+00  0.00000000E+00  0.00000000E+00
  0.00000000E+00  0.00000000E+00  0.00000000E+00
