Sodilite                                
   1.00000000000000     
     9.3015056432651466    0.0000000000000000    0.0214045281875388
     0.0000000000000000    9.3096211036844601    0.0000000000000000
     0.0213956243096870    0.0000000000000000    9.3007809172574660
   O    Na   Al   Si   Cl   K 
    24     2     6     6     2     6
Direct
  0.1452838381847766  0.4735179134636202  0.1556743709316575
  0.8570037092922229  0.5293168618698298  0.1511643027134126
  0.8547161618152241  0.4735179134636202  0.8443256290683426
  0.1429962907077775  0.5293168618698298  0.8488356972865874
  0.1525294879861818  0.1469200469075748  0.4712796980753942
  0.1543930620026154  0.8589036846253550  0.5270641608282939
  0.8456069379973841  0.8589036846253550  0.4729358391717067
  0.8474705120138181  0.1469200469075748  0.5287203019246062
  0.4702521144355675  0.1561616627381824  0.1435165665560423
  0.5297478855644325  0.1561616627381824  0.8564834334439583
  0.4741678601442603  0.8496579317950363  0.8550742249589320
  0.5258321398557400  0.8496579317950363  0.1449257750410680
  0.9734545145695720  0.6453888290449907  0.6526063154409413
  0.0361078829788942  0.3574633192803703  0.6538847202093824
  0.9638921170211058  0.3574633192803703  0.3461152797906182
  0.0265454854304280  0.6453888290449907  0.3473936845590586
  0.6438430448564870  0.6553324200574026  0.9724117016400740
  0.3561569551435125  0.6553324200574026  0.0275882983599261
  0.3559524071188020  0.3485521273274960  0.9651036160014652
  0.6440475928811980  0.3485521273274960  0.0348963839985351
  0.6449814628698988  0.9751354772968541  0.6350224297851940
  0.6614656030880861  0.0379104055149496  0.3474210530230297
  0.3550185371301012  0.9751354772968541  0.3649775702148058
  0.3385343969119134  0.0379104055149496  0.6525789469769702
  0.3026489935742408  0.2983223111673526  0.6972761534147525
  0.6973510064257589  0.2983223111673526  0.3027238465852473
  0.2504047090699776  0.5016888425174025  0.0001923551856609
  0.7495952909300219  0.5016888425174025 -0.0001923551856609
 -0.0000000000000000  0.2537558788551369  0.5000000000000000
 -0.0000000000000000  0.7534211538689655  0.5000000000000000
  0.5022079244678798  0.0048887924754031  0.2505660315300124
  0.4977920755321204  0.0048887924754031  0.7494339684699869
  0.2503057025064678  0.0049596177264710  0.5033155601853991
  0.7496942974935328  0.0049596177264710  0.4966844398146014
  0.5000000000000000  0.2530514898367369  0.0000000000000000
  0.5000000000000000  0.7530554478428209  0.0000000000000000
 -0.0013505961118763  0.5016138678458792  0.2502407909224436
  0.0013505961118763  0.5016138678458792  0.7497592090775568
 -0.0000000000000000  0.0055317863491717  0.0000000000000000
  0.5000000000000000  0.4387834549127859  0.5000000000000000
  0.1843156478849524  0.1852169150776012  0.1849239660406050
  0.8179919290162784  0.8185381473603471  0.1812643249716090
  0.8156843521150470  0.1852169150776012  0.8150760339593943
  0.1820080709837214  0.8185381473603471  0.8187356750283911
  0.6724937729326921  0.6717112200750726  0.6718477312025516
  0.3275062270673075  0.6717112200750726  0.3281522687974483
 
  0.00000000E+00  0.00000000E+00  0.00000000E+00
  0.00000000E+00  0.00000000E+00  0.00000000E+00
  0.00000000E+00  0.00000000E+00  0.00000000E+00
  0.00000000E+00  0.00000000E+00  0.00000000E+00
  0.00000000E+00  0.00000000E+00  0.00000000E+00
  0.00000000E+00  0.00000000E+00  0.00000000E+00
  0.00000000E+00  0.00000000E+00  0.00000000E+00
  0.00000000E+00  0.00000000E+00  0.00000000E+00
  0.00000000E+00  0.00000000E+00  0.00000000E+00
  0.00000000E+00  0.00000000E+00  0.00000000E+00
  0.00000000E+00  0.00000000E+00  0.00000000E+00
  0.00000000E+00  0.00000000E+00  0.00000000E+00
  0.00000000E+00  0.00000000E+00  0.00000000E+00
  0.00000000E+00  0.00000000E+00  0.00000000E+00
  0.00000000E+00  0.00000000E+00  0.00000000E+00
  0.00000000E+00  0.00000000E+00  0.00000000E+00
  0.00000000E+00  0.00000000E+00  0.00000000E+00
  0.00000000E+00  0.00000000E+00  0.00000000E+00
  0.00000000E+00  0.00000000E+00  0.00000000E+00
  0.00000000E+00  0.00000000E+00  0.00000000E+00
  0.00000000E+00  0.00000000E+00  0.00000000E+00
  0.00000000E+00  0.00000000E+00  0.00000000E+00
  0.00000000E+00  0.00000000E+00  0.00000000E+00
  0.00000000E+00  0.00000000E+00  0.00000000E+00
  0.00000000E+00  0.00000000E+00  0.00000000E+00
  0.00000000E+00  0.00000000E+00  0.00000000E+00
  0.00000000E+00  0.00000000E+00  0.00000000E+00
  0.00000000E+00  0.00000000E+00  0.00000000E+00
  0.00000000E+00  0.00000000E+00  0.00000000E+00
  0.00000000E+00  0.00000000E+00  0.00000000E+00
  0.00000000E+00  0.00000000E+00  0.00000000E+00
  0.00000000E+00  0.00000000E+00  0.00000000E+00
  0.00000000E+00  0.00000000E+00  0.00000000E+00
  0.00000000E+00  0.00000000E+00  0.00000000E+00
  0.00000000E+00  0.00000000E+00  0.00000000E+00
  0.00000000E+00  0.00000000E+00  0.00000000E+00
  0.00000000E+00  0.00000000E+00  0.00000000E+00
  0.00000000E+00  0.00000000E+00  0.00000000E+00
  0.00000000E+00  0.00000000E+00  0.00000000E+00
  0.00000000E+00  0.00000000E+00  0.00000000E+00
  0.00000000E+00  0.00000000E+00  0.00000000E+00
  0.00000000E+00  0.00000000E+00  0.00000000E+00
  0.00000000E+00  0.00000000E+00  0.00000000E+00
  0.00000000E+00  0.00000000E+00  0.00000000E+00
  0.00000000E+00  0.00000000E+00  0.00000000E+00
  0.00000000E+00  0.00000000E+00  0.00000000E+00
