Sodilite                                
   1.00000000000000     
     9.1713995645612343   -0.0025929010813899   -0.0025929005143000
    -0.0025929005143000    9.1713995645612343    0.0025929010813898
    -0.0025929010813898    0.0025929005143000    9.1713995645612343
   O    Na   Al   Si   Cl   K 
    24     4     6     6     2     4
Direct
  0.1474553190775423  0.4513771402023355  0.1595631721761797
  0.8648723381811156  0.5502019481514271  0.1455498464899385
  0.8503850063382264  0.4517036391111049  0.8432860508104851
  0.1375446897823778  0.5347029100371228  0.8533405848447851
  0.1567139491895150  0.1496149936617734  0.4517036391111049
  0.1466594151552150  0.8624553102176220  0.5347029100371228
  0.8404368278238202  0.8525446809224583  0.4513771402023355
  0.8544501535100619  0.1351276618188850  0.5502019481514271
  0.4497980518485732  0.1455498464899385  0.1351276618188850
  0.5486228597976650  0.1595631721761797  0.8525446809224583
  0.4652970899628773  0.8533405848447851  0.8624553102176220
  0.5482963608888961  0.8432860508104851  0.1496149936617734
  0.9599149074991017  0.6501657642965923  0.6603300757574916
  0.0375339276565112  0.3635475961418271  0.6441206555790683
  0.9484896176378380  0.3503144470764650  0.3404499928642420
  0.0391701754645021  0.6338833194444193  0.3557821040039688
  0.6364524038581731  0.6441206555790683  0.9624660723434889
  0.3498342357034079  0.6603300757574916  0.0400850925008976
  0.3661166805555811  0.3557821040039688  0.9608298245354981
  0.6496855529235355  0.3404499928642420  0.0515103823621620
  0.6442178959960319  0.9608298245354981  0.6338833194444193
  0.6595500071357576  0.0515103823621620  0.3503144470764650
  0.3558793444209315  0.9624660723434889  0.3635475961418271
  0.3396699242425085  0.0400850925008976  0.6501657642965923
  0.1895731493310407  0.1924346960842066  0.1931818549030955
  0.8068181450969043  0.8104268506689598  0.1924346960842066
  0.8075653039157934  0.1931818549030955  0.8104268506689598
  0.7089633407714508  0.2910366592285493  0.2910366592285493
  0.2497101397387283  0.5003953509848935  0.0040939381969377
  0.7505076372589559  0.4964813109335243  0.0017241512648667
 -0.0017241512648667  0.2494923627410443  0.4964813109335243
 -0.0040939381969377  0.7502898602612716  0.5003953509848935
  0.5035186890664760  0.0017241512648667  0.2494923627410443
  0.4996046490151063  0.0040939381969377  0.7502898602612716
  0.2494728797361519  0.0038247526303521  0.4999118089999363
  0.7497673581043455  0.0007490010762433  0.4964829608449888
  0.5035170391550109  0.2502326418956544  0.0007490010762433
  0.5000881910000639  0.7505271202638485  0.0038247526303521
 -0.0007490010762433  0.4964829608449888  0.2502326418956544
 -0.0038247526303521  0.4999118089999363  0.7505271202638485
 -0.0344389748622677  0.0344389748622677  0.0344389748622677
  0.5424907454948550  0.4575092545051450  0.4575092545051450
  0.1593396786738354  0.8406603213261641  0.8406603213261641
  0.6667523068282890  0.6695063441712228  0.6703988256348808
  0.3296011743651187  0.3332476931717113  0.6695063441712228
  0.3304936558287774  0.6703988256348808  0.3332476931717113
 
  0.00000000E+00  0.00000000E+00  0.00000000E+00
  0.00000000E+00  0.00000000E+00  0.00000000E+00
  0.00000000E+00  0.00000000E+00  0.00000000E+00
  0.00000000E+00  0.00000000E+00  0.00000000E+00
  0.00000000E+00  0.00000000E+00  0.00000000E+00
  0.00000000E+00  0.00000000E+00  0.00000000E+00
  0.00000000E+00  0.00000000E+00  0.00000000E+00
  0.00000000E+00  0.00000000E+00  0.00000000E+00
  0.00000000E+00  0.00000000E+00  0.00000000E+00
  0.00000000E+00  0.00000000E+00  0.00000000E+00
  0.00000000E+00  0.00000000E+00  0.00000000E+00
  0.00000000E+00  0.00000000E+00  0.00000000E+00
  0.00000000E+00  0.00000000E+00  0.00000000E+00
  0.00000000E+00  0.00000000E+00  0.00000000E+00
  0.00000000E+00  0.00000000E+00  0.00000000E+00
  0.00000000E+00  0.00000000E+00  0.00000000E+00
  0.00000000E+00  0.00000000E+00  0.00000000E+00
  0.00000000E+00  0.00000000E+00  0.00000000E+00
  0.00000000E+00  0.00000000E+00  0.00000000E+00
  0.00000000E+00  0.00000000E+00  0.00000000E+00
  0.00000000E+00  0.00000000E+00  0.00000000E+00
  0.00000000E+00  0.00000000E+00  0.00000000E+00
  0.00000000E+00  0.00000000E+00  0.00000000E+00
  0.00000000E+00  0.00000000E+00  0.00000000E+00
  0.00000000E+00  0.00000000E+00  0.00000000E+00
  0.00000000E+00  0.00000000E+00  0.00000000E+00
  0.00000000E+00  0.00000000E+00  0.00000000E+00
  0.00000000E+00  0.00000000E+00  0.00000000E+00
  0.00000000E+00  0.00000000E+00  0.00000000E+00
  0.00000000E+00  0.00000000E+00  0.00000000E+00
  0.00000000E+00  0.00000000E+00  0.00000000E+00
  0.00000000E+00  0.00000000E+00  0.00000000E+00
  0.00000000E+00  0.00000000E+00  0.00000000E+00
  0.00000000E+00  0.00000000E+00  0.00000000E+00
  0.00000000E+00  0.00000000E+00  0.00000000E+00
  0.00000000E+00  0.00000000E+00  0.00000000E+00
  0.00000000E+00  0.00000000E+00  0.00000000E+00
  0.00000000E+00  0.00000000E+00  0.00000000E+00
  0.00000000E+00  0.00000000E+00  0.00000000E+00
  0.00000000E+00  0.00000000E+00  0.00000000E+00
  0.00000000E+00  0.00000000E+00  0.00000000E+00
  0.00000000E+00  0.00000000E+00  0.00000000E+00
  0.00000000E+00  0.00000000E+00  0.00000000E+00
  0.00000000E+00  0.00000000E+00  0.00000000E+00
  0.00000000E+00  0.00000000E+00  0.00000000E+00
  0.00000000E+00  0.00000000E+00  0.00000000E+00
