Sodilite                                
   1.00000000000000     
     9.1601281310683618    0.0000000000000000    0.0000000000000000
     0.0000000000000000    9.1574140408982050    0.0571822488182423
     0.0000000000000000    0.0571822488182423    9.1574140408982050
   O    Na   Al   Si   Cl   K 
    24     4     6     6     2     4
Direct
  0.1457604742329208  0.4568686831897478  0.1501638211429475
  0.8612231951882809  0.5488391779877407  0.1538016496084077
  0.8612231951882809  0.4511608220122594  0.8461983503915925
  0.1457604742329208  0.5431313168102521  0.8498361788570525
  0.1571522794050164  0.1416320507016217  0.4552146727763549
  0.1571522794050164  0.8583679492983785  0.5447853272236451
  0.8533310847715265  0.8567096119125721  0.4529830106925808
  0.8533310847715265  0.1432903880874275  0.5470169893074197
  0.4637424315655322  0.1418160763677588  0.1308422532966961
  0.5547198230022105  0.1625855474716031  0.8458543871024006
  0.4637424315655322  0.8581839236322411  0.8691577467033040
  0.5547198230022105  0.8374144525283972  0.1541456128975996
  0.9637424315655327  0.6308422532966960  0.6418160763677589
  0.0547198230022103  0.3458543871024006  0.6625855474716028
  0.9637424315655327  0.3691577467033038  0.3581839236322413
  0.0547198230022103  0.6541456128975994  0.3374144525283969
  0.6457604742329206  0.6501638211429475  0.9568686831897479
  0.3612231951882808  0.6538016496084075  0.0488391779877406
  0.3612231951882808  0.3461983503915920  0.9511608220122593
  0.6457604742329206  0.3498361788570524  0.0431313168102521
  0.6571522794050163  0.9552146727763549  0.6416320507016215
  0.6571522794050163  0.0447853272236452  0.3583679492983782
  0.3533310847715267  0.9529830106925803  0.3567096119125723
  0.3533310847715267  0.0470169893074193  0.6432903880874279
  0.8097191846021933  0.8068443255736295  0.1946058873802526
  0.8097191846021933  0.1931556744263701  0.8053941126197472
  0.3097191846021927  0.3053941126197474  0.6931556744263705
  0.3097191846021927  0.6946058873802528  0.3068443255736298
  0.2568738681459304  0.5000000000000000 -0.0000000000000000
  0.7568738681459304  0.5000000000000000 -0.0000000000000000
  0.0082874378108140  0.2504207772702732  0.5034663204361137
  0.0082874378108140  0.7495792227297273  0.4965336795638863
  0.5082874378108143 -0.0034663204361139  0.2495792227297270
  0.5082874378108143  0.0034663204361139  0.7504207772702727
  0.2566676829369905 -0.0000000000000000  0.5000000000000000
  0.7566676829369909 -0.0000000000000000  0.5000000000000000
  0.5074193640205862  0.2498620094249928 -0.0059281915905721
  0.5074193640205862  0.7501379905750074  0.0059281915905721
  0.0074193640205862  0.5059281915905721  0.2501379905750073
  0.0074193640205862  0.4940718084094282  0.7498620094249926
 -0.0691559305966638 -0.0000000000000000 -0.0000000000000000
  0.4308440694033361  0.5000000000000000  0.5000000000000000
  0.1664519151577908  0.1642901316105619  0.1628347475559355
  0.1664519151577908  0.8357098683894378  0.8371652524440645
  0.6664519151577908  0.6628347475559355  0.6642901316105622
  0.6664519151577908  0.3371652524440645  0.3357098683894380
 
  0.00000000E+00  0.00000000E+00  0.00000000E+00
  0.00000000E+00  0.00000000E+00  0.00000000E+00
  0.00000000E+00  0.00000000E+00  0.00000000E+00
  0.00000000E+00  0.00000000E+00  0.00000000E+00
  0.00000000E+00  0.00000000E+00  0.00000000E+00
  0.00000000E+00  0.00000000E+00  0.00000000E+00
  0.00000000E+00  0.00000000E+00  0.00000000E+00
  0.00000000E+00  0.00000000E+00  0.00000000E+00
  0.00000000E+00  0.00000000E+00  0.00000000E+00
  0.00000000E+00  0.00000000E+00  0.00000000E+00
  0.00000000E+00  0.00000000E+00  0.00000000E+00
  0.00000000E+00  0.00000000E+00  0.00000000E+00
  0.00000000E+00  0.00000000E+00  0.00000000E+00
  0.00000000E+00  0.00000000E+00  0.00000000E+00
  0.00000000E+00  0.00000000E+00  0.00000000E+00
  0.00000000E+00  0.00000000E+00  0.00000000E+00
  0.00000000E+00  0.00000000E+00  0.00000000E+00
  0.00000000E+00  0.00000000E+00  0.00000000E+00
  0.00000000E+00  0.00000000E+00  0.00000000E+00
  0.00000000E+00  0.00000000E+00  0.00000000E+00
  0.00000000E+00  0.00000000E+00  0.00000000E+00
  0.00000000E+00  0.00000000E+00  0.00000000E+00
  0.00000000E+00  0.00000000E+00  0.00000000E+00
  0.00000000E+00  0.00000000E+00  0.00000000E+00
  0.00000000E+00  0.00000000E+00  0.00000000E+00
  0.00000000E+00  0.00000000E+00  0.00000000E+00
  0.00000000E+00  0.00000000E+00  0.00000000E+00
  0.00000000E+00  0.00000000E+00  0.00000000E+00
  0.00000000E+00  0.00000000E+00  0.00000000E+00
  0.00000000E+00  0.00000000E+00  0.00000000E+00
  0.00000000E+00  0.00000000E+00  0.00000000E+00
  0.00000000E+00  0.00000000E+00  0.00000000E+00
  0.00000000E+00  0.00000000E+00  0.00000000E+00
  0.00000000E+00  0.00000000E+00  0.00000000E+00
  0.00000000E+00  0.00000000E+00  0.00000000E+00
  0.00000000E+00  0.00000000E+00  0.00000000E+00
  0.00000000E+00  0.00000000E+00  0.00000000E+00
  0.00000000E+00  0.00000000E+00  0.00000000E+00
  0.00000000E+00  0.00000000E+00  0.00000000E+00
  0.00000000E+00  0.00000000E+00  0.00000000E+00
  0.00000000E+00  0.00000000E+00  0.00000000E+00
  0.00000000E+00  0.00000000E+00  0.00000000E+00
  0.00000000E+00  0.00000000E+00  0.00000000E+00
  0.00000000E+00  0.00000000E+00  0.00000000E+00
  0.00000000E+00  0.00000000E+00  0.00000000E+00
  0.00000000E+00  0.00000000E+00  0.00000000E+00
