Sodilite                                
   1.00000000000000     
     9.1734423830148355   -0.0032215680482816   -0.0258883701671019
    -0.0032243590781785    9.1744894327515798   -0.0244337709810978
    -0.0258915690996451   -0.0244335863626191    9.1822790744919338
   O    Na   Al   Si   Cl   K 
    24     4     6     6     2     4
Direct
  0.1477153353924922  0.4476693339494999  0.1603027481470483
  0.8643731885472412  0.5386455959418163  0.1442467275322201
  0.8462414091204863  0.4582414881964000  0.8416060838129743
  0.1339508599235893  0.5347453054726620  0.8539997064363403
  0.1587998372051395  0.1489400251788824  0.4515316257309827
  0.1394894886022028  0.8636426173177514  0.5374121158322342
  0.8365506732398982  0.8467047019282194  0.4572040872528891
  0.8533280756449804  0.1317917049082774  0.5387995843716747
  0.4491907994758063  0.1562010867902358  0.1513546787316369
  0.5344628550572423  0.1432946173761365  0.8651242087757980
  0.4569289559199488  0.8372652068861848  0.8504702842987908
  0.5384781923456529  0.8529823581039283  0.1354452391606637
  0.9533989970123479  0.6452122626567851  0.6559238700255957
  0.0360772945887870  0.3580013403775303  0.6480562492971969
  0.9473727496508888  0.3536132098534129  0.3459500734494092
  0.0462645331556099  0.6367799103493028  0.3493866396995341
  0.6354645250142196  0.6446540253080072  0.9584811074325099
  0.3484965352036884  0.6553826368572231  0.0478413941248932
  0.3635620842435370  0.3536522927823773  0.9597784531623386
  0.6470519203844106  0.3374780321485594  0.0497307305390332
  0.6533860913349413  0.9543481295888934  0.6468719391306993
  0.6461432750818358  0.0452520480710837  0.3604797055313897
  0.3432487534446740  0.9465850867997202  0.3549443284847947
  0.3470721638212832  0.0370815979619461  0.6387338223131684
  0.2046067077204054  0.2034888594553417  0.2051892913273899
  0.6871048474483482  0.6872450082983372  0.6821084279758486
  0.6913435672288398  0.3083243879534953  0.3077439272365740
  0.3095546525980524  0.6910229892010662  0.3062299290297547
  0.2468158099942338  0.4970830501131778  0.0043649259404852
  0.7462855216547084  0.4942007483643727  0.0000538360099232
 -0.0013176496979029  0.2468416538557902  0.4961120948317725
 -0.0060383980380875  0.7460848260415359  0.4984341934318022
  0.4944073419637284 -0.0013757496796346  0.2507799827364599
  0.4966385863295214 -0.0059509127377354  0.7500068335928989
  0.2467297810767150 -0.0014047963432490  0.4956593887576371
  0.7465223401826181 -0.0055636316576198  0.4999457645222096
  0.4977692341851186  0.2469875903897189  0.0058225496608032
  0.4944693564888958  0.7466456915645460 -0.0011000172791273
  0.0002645063115540  0.4939661243485342  0.2501569745038027
 -0.0071219738368520  0.4980106735159407  0.7497592026917090
  0.0375851717301418  0.0374020383932740  0.0410663600412697
  0.5285189874624674  0.5281972322513347  0.4645704630805880
  0.8273350090134919  0.8270540354625152  0.1682333083492557
  0.8284604365238653  0.1669025935538092  0.8297772833503967
  0.1659102530560967  0.8288516564341826  0.8285810111147082
  0.3371073171931370  0.3378213164164313  0.6628288658200232
 
  0.00000000E+00  0.00000000E+00  0.00000000E+00
  0.00000000E+00  0.00000000E+00  0.00000000E+00
  0.00000000E+00  0.00000000E+00  0.00000000E+00
  0.00000000E+00  0.00000000E+00  0.00000000E+00
  0.00000000E+00  0.00000000E+00  0.00000000E+00
  0.00000000E+00  0.00000000E+00  0.00000000E+00
  0.00000000E+00  0.00000000E+00  0.00000000E+00
  0.00000000E+00  0.00000000E+00  0.00000000E+00
  0.00000000E+00  0.00000000E+00  0.00000000E+00
  0.00000000E+00  0.00000000E+00  0.00000000E+00
  0.00000000E+00  0.00000000E+00  0.00000000E+00
  0.00000000E+00  0.00000000E+00  0.00000000E+00
  0.00000000E+00  0.00000000E+00  0.00000000E+00
  0.00000000E+00  0.00000000E+00  0.00000000E+00
  0.00000000E+00  0.00000000E+00  0.00000000E+00
  0.00000000E+00  0.00000000E+00  0.00000000E+00
  0.00000000E+00  0.00000000E+00  0.00000000E+00
  0.00000000E+00  0.00000000E+00  0.00000000E+00
  0.00000000E+00  0.00000000E+00  0.00000000E+00
  0.00000000E+00  0.00000000E+00  0.00000000E+00
  0.00000000E+00  0.00000000E+00  0.00000000E+00
  0.00000000E+00  0.00000000E+00  0.00000000E+00
  0.00000000E+00  0.00000000E+00  0.00000000E+00
  0.00000000E+00  0.00000000E+00  0.00000000E+00
  0.00000000E+00  0.00000000E+00  0.00000000E+00
  0.00000000E+00  0.00000000E+00  0.00000000E+00
  0.00000000E+00  0.00000000E+00  0.00000000E+00
  0.00000000E+00  0.00000000E+00  0.00000000E+00
  0.00000000E+00  0.00000000E+00  0.00000000E+00
  0.00000000E+00  0.00000000E+00  0.00000000E+00
  0.00000000E+00  0.00000000E+00  0.00000000E+00
  0.00000000E+00  0.00000000E+00  0.00000000E+00
  0.00000000E+00  0.00000000E+00  0.00000000E+00
  0.00000000E+00  0.00000000E+00  0.00000000E+00
  0.00000000E+00  0.00000000E+00  0.00000000E+00
  0.00000000E+00  0.00000000E+00  0.00000000E+00
  0.00000000E+00  0.00000000E+00  0.00000000E+00
  0.00000000E+00  0.00000000E+00  0.00000000E+00
  0.00000000E+00  0.00000000E+00  0.00000000E+00
  0.00000000E+00  0.00000000E+00  0.00000000E+00
  0.00000000E+00  0.00000000E+00  0.00000000E+00
  0.00000000E+00  0.00000000E+00  0.00000000E+00
  0.00000000E+00  0.00000000E+00  0.00000000E+00
  0.00000000E+00  0.00000000E+00  0.00000000E+00
  0.00000000E+00  0.00000000E+00  0.00000000E+00
  0.00000000E+00  0.00000000E+00  0.00000000E+00
