Sodilite                                
   1.00000000000000     
     9.2119889808412356   -0.0056500984503152   -0.0130420403590011
    -0.0056606241600268    9.2316590278444917    0.0061595935430221
    -0.0130393497042767    0.0061404265484619    9.2106716411364644
   O    Na   Al   Si   Cl   K 
    24     3     6     6     2     5
Direct
  0.1350648921932235  0.4656217595012725  0.1409117585966791
  0.8493327093817129  0.5457915191836249  0.1610971292693342
  0.8663605076588259  0.4653246905723356  0.8552743996512394
  0.1529388408860794  0.5363083856890066  0.8364410558892222
  0.1617111507363758  0.1477219522662632  0.4639629145183654
  0.1462913885130426  0.8617577167134913  0.5353806860349842
  0.8430798593275362  0.8487661545999470  0.4513834608705722
  0.8537480589128214  0.1347425700391988  0.5313735620139290
  0.4694733512522986  0.1448384791072043  0.1373260503359722
  0.5348357230002522  0.1568706261375084  0.8478725241055364
  0.4635770562803403  0.8532051196512050  0.8642475984288467
  0.5499407741867111  0.8389973792648645  0.1478437320454117
  0.9561264879087391  0.6450923367959697  0.6525547608421927
  0.0317754420299493  0.3571587954833321  0.6493187053200105
  0.9656180454433145  0.3553671148891744  0.3428070810088267
  0.0489587598982932  0.6398737619886555  0.3485835768440891
  0.6411323635636351  0.6486582142516060  0.9517553826202800
  0.3572475724917853  0.6549972582338772  0.0440535519917431
  0.3588469418948210  0.3475484906532427  0.9673340383912475
  0.6474477701973016  0.3453869490350779  0.0342306506217264
  0.6674215619519113  0.9530281338803629  0.6533211928280358
  0.6401540543879899  0.0353385731046957  0.3696832063047678
  0.3377994736643219  0.9540903150278242  0.3427908183689543
  0.3598681426232632  0.0286742715338979  0.6307686891481830
  0.7934574598574777  0.7922843306454376  0.2075068236865547
  0.6980072724830155  0.6980762738563761  0.6974814785538295
  0.3027914371635216  0.6991471775696700  0.3028920614412878
  0.2522907272564844  0.5020817530448520 -0.0033568353119551
  0.7516301104129285  0.5016387100410791  0.0012485693326156
  0.0027598466679123  0.2480013880150210  0.4960306657214293
 -0.0008927137835629  0.7482316222851890  0.4967606364677110
  0.5004434643521588 -0.0068934602026474  0.2485572402662428
  0.5065223592466759 -0.0032888399989945  0.7477177704982602
  0.2520410225594867 -0.0027622567739481  0.4932774893490032
  0.7514702328884371 -0.0072186252643583  0.5004864164577237
  0.5031924610101312  0.2482951446215291 -0.0030871451724884
  0.5033386423603253  0.7486970325161570  0.0015251824565718
 -0.0003284640292630  0.5018652649369436  0.2481650494292847
  0.0020961213574523  0.5013652439813634  0.7478868083658995
 -0.0381516215585392 -0.0419471890491567  0.0383737903595150
  0.5022481298674449  0.5698031505940289  0.4979990488758350
  0.1720886218228246  0.1721797686867046  0.1683692217965921
  0.8307450023989708  0.1717700839647385  0.8283949143182683
  0.1733460872960297  0.8287745251055845  0.8262733213400901
  0.3344785122299237  0.3337791662945762  0.6648622421882802
  0.6676743597556197  0.3309591675262175  0.3323187235292974
 
  0.00000000E+00  0.00000000E+00  0.00000000E+00
  0.00000000E+00  0.00000000E+00  0.00000000E+00
  0.00000000E+00  0.00000000E+00  0.00000000E+00
  0.00000000E+00  0.00000000E+00  0.00000000E+00
  0.00000000E+00  0.00000000E+00  0.00000000E+00
  0.00000000E+00  0.00000000E+00  0.00000000E+00
  0.00000000E+00  0.00000000E+00  0.00000000E+00
  0.00000000E+00  0.00000000E+00  0.00000000E+00
  0.00000000E+00  0.00000000E+00  0.00000000E+00
  0.00000000E+00  0.00000000E+00  0.00000000E+00
  0.00000000E+00  0.00000000E+00  0.00000000E+00
  0.00000000E+00  0.00000000E+00  0.00000000E+00
  0.00000000E+00  0.00000000E+00  0.00000000E+00
  0.00000000E+00  0.00000000E+00  0.00000000E+00
  0.00000000E+00  0.00000000E+00  0.00000000E+00
  0.00000000E+00  0.00000000E+00  0.00000000E+00
  0.00000000E+00  0.00000000E+00  0.00000000E+00
  0.00000000E+00  0.00000000E+00  0.00000000E+00
  0.00000000E+00  0.00000000E+00  0.00000000E+00
  0.00000000E+00  0.00000000E+00  0.00000000E+00
  0.00000000E+00  0.00000000E+00  0.00000000E+00
  0.00000000E+00  0.00000000E+00  0.00000000E+00
  0.00000000E+00  0.00000000E+00  0.00000000E+00
  0.00000000E+00  0.00000000E+00  0.00000000E+00
  0.00000000E+00  0.00000000E+00  0.00000000E+00
  0.00000000E+00  0.00000000E+00  0.00000000E+00
  0.00000000E+00  0.00000000E+00  0.00000000E+00
  0.00000000E+00  0.00000000E+00  0.00000000E+00
  0.00000000E+00  0.00000000E+00  0.00000000E+00
  0.00000000E+00  0.00000000E+00  0.00000000E+00
  0.00000000E+00  0.00000000E+00  0.00000000E+00
  0.00000000E+00  0.00000000E+00  0.00000000E+00
  0.00000000E+00  0.00000000E+00  0.00000000E+00
  0.00000000E+00  0.00000000E+00  0.00000000E+00
  0.00000000E+00  0.00000000E+00  0.00000000E+00
  0.00000000E+00  0.00000000E+00  0.00000000E+00
  0.00000000E+00  0.00000000E+00  0.00000000E+00
  0.00000000E+00  0.00000000E+00  0.00000000E+00
  0.00000000E+00  0.00000000E+00  0.00000000E+00
  0.00000000E+00  0.00000000E+00  0.00000000E+00
  0.00000000E+00  0.00000000E+00  0.00000000E+00
  0.00000000E+00  0.00000000E+00  0.00000000E+00
  0.00000000E+00  0.00000000E+00  0.00000000E+00
  0.00000000E+00  0.00000000E+00  0.00000000E+00
  0.00000000E+00  0.00000000E+00  0.00000000E+00
  0.00000000E+00  0.00000000E+00  0.00000000E+00
