Sodilite                                
   1.00000000000000     
     9.0997208004234231    0.0109997274108855    0.0116236079808035
     0.0109812999289377    9.0995590210798607    0.0450636075794228
     0.0116088445632926    0.0450516969170069    9.0976828067770210
   O    Na   Al   Si   Cl   K 
    24     5     6     6     2     3
Direct
  0.1434318854724410  0.4521577206333722  0.1525933903535822
  0.8617683429395480  0.5567594881761982  0.1528174906154635
  0.8604458364426069  0.4475656774215885  0.8489193419745829
  0.1450796701333498  0.5462007649797735  0.8518556166089909
  0.1551601189859171  0.1431085610727997  0.4520111187645716
  0.1557707258969489  0.8596673755314354  0.5477846464559250
  0.8513943040002210  0.8597211925230041  0.4480091454403717
  0.8540409620368482  0.1423914116329827  0.5550998913302506
  0.4574271899315505  0.1394960787980754  0.1287824684242914
  0.5595409022985983  0.1659951142905831  0.8472189945551153
  0.4614145806632522  0.8612307556005151  0.8716467006397655
  0.5581273735060519  0.8385738652160442  0.1566170002754926
  0.9574458374140721  0.6382071505225790  0.6490873928047152
  0.0576235786486258  0.3543606331219838  0.6565361701610763
  0.9481382653005987  0.3644464978995123  0.3536714067233113
  0.0570505414480711  0.6468619647283739  0.3463249354953213
  0.6387038068109575  0.6457095057502477  0.9546598799271815
  0.3557871058402553  0.6594358195778590  0.0546707790656439
  0.3663144392654129  0.3528874863651743  0.9500196397471405
  0.6486636911497250  0.3466500438959559  0.0575632658253310
  0.6496470852121961  0.9532941994359379  0.6358782844457215
  0.6601585996084516  0.0595760898508605  0.3554169807938758
  0.3576034471817057  0.9511581877846044  0.3631386773435140
  0.3480170379246042  0.0528181346161097  0.6488088742112305
  0.8094413943004763  0.8073640897871336  0.1948407450778931
  0.8107026166661708  0.1945556356431243  0.8059717005007082
  0.3167736474729112  0.3130180795918375  0.6848317952544444
  0.6897876851168140  0.3124301327168320  0.3108535249459844
  0.3164724781107636  0.6862345428558828  0.3146982838226925
  0.2557222746711208  0.5022402998987895  0.0035301583759157
  0.7545883288442778  0.4996218203303319  0.0031693662399758
  0.0049125331623425  0.2521197128611903  0.5024846288685538
  0.0050845761893268  0.7517482443611678  0.4994218871596849
  0.5092171831365501 -0.0003960202067956  0.2516201737656114
  0.5064086746629255  0.0069419388489865  0.7521241383838653
  0.2554446527185074  0.0024371804994973  0.5027295072400801
  0.7546278146271375  0.0037592731135899  0.4990289812831622
  0.5087848115886032  0.2515049077576083 -0.0025469558839239
  0.5049221513538398  0.7518187096967550  0.0085730887027395
  0.0035542263432006  0.5042043334393950  0.2517977332491630
  0.0053752038647447  0.4976133728110958  0.7518075824311738
 -0.0762000139966964  0.0014848992924537  0.0013028504000272
  0.4700449897933166  0.4648145447419188  0.4644563017356299
  0.1639901761814182  0.1605218766446372  0.1599969693169309
  0.1630010095360460  0.8400934951454495  0.8416525551937122
  0.6585882575441933  0.6575952107435475  0.6585228919535077
 
  0.00000000E+00  0.00000000E+00  0.00000000E+00
  0.00000000E+00  0.00000000E+00  0.00000000E+00
  0.00000000E+00  0.00000000E+00  0.00000000E+00
  0.00000000E+00  0.00000000E+00  0.00000000E+00
  0.00000000E+00  0.00000000E+00  0.00000000E+00
  0.00000000E+00  0.00000000E+00  0.00000000E+00
  0.00000000E+00  0.00000000E+00  0.00000000E+00
  0.00000000E+00  0.00000000E+00  0.00000000E+00
  0.00000000E+00  0.00000000E+00  0.00000000E+00
  0.00000000E+00  0.00000000E+00  0.00000000E+00
  0.00000000E+00  0.00000000E+00  0.00000000E+00
  0.00000000E+00  0.00000000E+00  0.00000000E+00
  0.00000000E+00  0.00000000E+00  0.00000000E+00
  0.00000000E+00  0.00000000E+00  0.00000000E+00
  0.00000000E+00  0.00000000E+00  0.00000000E+00
  0.00000000E+00  0.00000000E+00  0.00000000E+00
  0.00000000E+00  0.00000000E+00  0.00000000E+00
  0.00000000E+00  0.00000000E+00  0.00000000E+00
  0.00000000E+00  0.00000000E+00  0.00000000E+00
  0.00000000E+00  0.00000000E+00  0.00000000E+00
  0.00000000E+00  0.00000000E+00  0.00000000E+00
  0.00000000E+00  0.00000000E+00  0.00000000E+00
  0.00000000E+00  0.00000000E+00  0.00000000E+00
  0.00000000E+00  0.00000000E+00  0.00000000E+00
  0.00000000E+00  0.00000000E+00  0.00000000E+00
  0.00000000E+00  0.00000000E+00  0.00000000E+00
  0.00000000E+00  0.00000000E+00  0.00000000E+00
  0.00000000E+00  0.00000000E+00  0.00000000E+00
  0.00000000E+00  0.00000000E+00  0.00000000E+00
  0.00000000E+00  0.00000000E+00  0.00000000E+00
  0.00000000E+00  0.00000000E+00  0.00000000E+00
  0.00000000E+00  0.00000000E+00  0.00000000E+00
  0.00000000E+00  0.00000000E+00  0.00000000E+00
  0.00000000E+00  0.00000000E+00  0.00000000E+00
  0.00000000E+00  0.00000000E+00  0.00000000E+00
  0.00000000E+00  0.00000000E+00  0.00000000E+00
  0.00000000E+00  0.00000000E+00  0.00000000E+00
  0.00000000E+00  0.00000000E+00  0.00000000E+00
  0.00000000E+00  0.00000000E+00  0.00000000E+00
  0.00000000E+00  0.00000000E+00  0.00000000E+00
  0.00000000E+00  0.00000000E+00  0.00000000E+00
  0.00000000E+00  0.00000000E+00  0.00000000E+00
  0.00000000E+00  0.00000000E+00  0.00000000E+00
  0.00000000E+00  0.00000000E+00  0.00000000E+00
  0.00000000E+00  0.00000000E+00  0.00000000E+00
  0.00000000E+00  0.00000000E+00  0.00000000E+00
