Sodilite                                
   1.00000000000000     
     9.2707801936571848   -0.0099067764418198   -0.0099067751234374
    -0.0099067751234374    9.2707801936571848    0.0099067764418198
    -0.0099067764418198    0.0099067751234374    9.2707801936571848
   O    Na   Al   Si   Cl   K 
    24     3     6     6     2     5
Direct
  0.1488088977880503  0.4607862326111569  0.1556935811942797
  0.8613660130562365  0.5365520005685105  0.1487863823394131
  0.8531140127805966  0.4598163239363182  0.8418688976058473
  0.1402454824842552  0.5288088226319956  0.8500943036856142
  0.1581311023941525  0.1468859872194040  0.4598163239363182
  0.1499056963143860  0.8597545175157449  0.5288088226319956
  0.8443064188057198  0.8511911022119498  0.4607862326111569
  0.8512136176605865  0.1386339869437629  0.5365520005685105
  0.4634479994314898  0.1487863823394131  0.1386339869437629
  0.5392137673888427  0.1556935811942797  0.8511911022119498
  0.4711911773680048  0.8500943036856142  0.8597545175157449
  0.5401836760636821  0.8418688976058473  0.1468859872194040
  0.9708094551036401  0.6430626888196475  0.6531455342531651
  0.0314313257732633  0.3545679802523385  0.6503415104853203
  0.9689579761005993  0.3543203788552914  0.3448623363005351
  0.0329376007027828  0.6415086995821505  0.3460539456000242
  0.6454320197476613  0.6503415104853203  0.9685686742267368
  0.3569373111803519  0.6531455342531651  0.0291905448963600
  0.3584913004178501  0.3460539456000242  0.9670623992972170
  0.6456796211447090  0.3448623363005351  0.0310420238994007
  0.6539460543999760  0.9670623992972170  0.6415086995821505
  0.6551376636994644  0.0310420238994007  0.3543203788552914
  0.3496584895146794  0.9685686742267368  0.3545679802523386
  0.3468544657468344  0.0291905448963600  0.6430626888196475
  0.1898360670469062  0.1967831483504689  0.1967097574814319
  0.8032902425185682  0.8101639329530936  0.1967831483504689
  0.8032168516495309  0.1967097574814319  0.8101639329530936
  0.2514001762319660  0.4977150879222584  0.0000512788025042
  0.7525757958823580  0.4976794478259340 -0.0017746679941016
  0.0017746679941016  0.2474242041176418  0.4976794478259340
 -0.0000512788025042  0.7485998237680344  0.4977150879222584
  0.5023205521740662 -0.0017746679941016  0.2474242041176418
  0.5022849120777423  0.0000512788025042  0.7485998237680344
  0.2512316537119405  0.0006528368582158  0.4967346353002167
  0.7516841293472377 -0.0026855332282071  0.4981321948378349
  0.5018678051621656  0.2483158706527625 -0.0026855332282071
  0.5032653646997830  0.7487683462880591  0.0006528368582158
  0.0026855332282071  0.4981321948378349  0.2483158706527625
 -0.0006528368582158  0.4967346353002167  0.7487683462880591
 -0.0286528825063057  0.0286528825063057  0.0286528825063057
  0.5031048835023136  0.4968951164976861  0.4968951164976861
  0.1667254096801268  0.8332745903198733  0.8332745903198733
  0.6816784575235836  0.6805579522292912  0.6814397619819347
  0.3185602380180658  0.3183215424764158  0.6805579522292912
  0.6850110648798384  0.3149889351201610  0.3149889351201610
  0.3194420477707089  0.6814397619819347  0.3183215424764158
 
  0.00000000E+00  0.00000000E+00  0.00000000E+00
  0.00000000E+00  0.00000000E+00  0.00000000E+00
  0.00000000E+00  0.00000000E+00  0.00000000E+00
  0.00000000E+00  0.00000000E+00  0.00000000E+00
  0.00000000E+00  0.00000000E+00  0.00000000E+00
  0.00000000E+00  0.00000000E+00  0.00000000E+00
  0.00000000E+00  0.00000000E+00  0.00000000E+00
  0.00000000E+00  0.00000000E+00  0.00000000E+00
  0.00000000E+00  0.00000000E+00  0.00000000E+00
  0.00000000E+00  0.00000000E+00  0.00000000E+00
  0.00000000E+00  0.00000000E+00  0.00000000E+00
  0.00000000E+00  0.00000000E+00  0.00000000E+00
  0.00000000E+00  0.00000000E+00  0.00000000E+00
  0.00000000E+00  0.00000000E+00  0.00000000E+00
  0.00000000E+00  0.00000000E+00  0.00000000E+00
  0.00000000E+00  0.00000000E+00  0.00000000E+00
  0.00000000E+00  0.00000000E+00  0.00000000E+00
  0.00000000E+00  0.00000000E+00  0.00000000E+00
  0.00000000E+00  0.00000000E+00  0.00000000E+00
  0.00000000E+00  0.00000000E+00  0.00000000E+00
  0.00000000E+00  0.00000000E+00  0.00000000E+00
  0.00000000E+00  0.00000000E+00  0.00000000E+00
  0.00000000E+00  0.00000000E+00  0.00000000E+00
  0.00000000E+00  0.00000000E+00  0.00000000E+00
  0.00000000E+00  0.00000000E+00  0.00000000E+00
  0.00000000E+00  0.00000000E+00  0.00000000E+00
  0.00000000E+00  0.00000000E+00  0.00000000E+00
  0.00000000E+00  0.00000000E+00  0.00000000E+00
  0.00000000E+00  0.00000000E+00  0.00000000E+00
  0.00000000E+00  0.00000000E+00  0.00000000E+00
  0.00000000E+00  0.00000000E+00  0.00000000E+00
  0.00000000E+00  0.00000000E+00  0.00000000E+00
  0.00000000E+00  0.00000000E+00  0.00000000E+00
  0.00000000E+00  0.00000000E+00  0.00000000E+00
  0.00000000E+00  0.00000000E+00  0.00000000E+00
  0.00000000E+00  0.00000000E+00  0.00000000E+00
  0.00000000E+00  0.00000000E+00  0.00000000E+00
  0.00000000E+00  0.00000000E+00  0.00000000E+00
  0.00000000E+00  0.00000000E+00  0.00000000E+00
  0.00000000E+00  0.00000000E+00  0.00000000E+00
  0.00000000E+00  0.00000000E+00  0.00000000E+00
  0.00000000E+00  0.00000000E+00  0.00000000E+00
  0.00000000E+00  0.00000000E+00  0.00000000E+00
  0.00000000E+00  0.00000000E+00  0.00000000E+00
  0.00000000E+00  0.00000000E+00  0.00000000E+00
  0.00000000E+00  0.00000000E+00  0.00000000E+00
