Sodilite                                
   1.00000000000000     
     9.1568400055070889   -0.0572277937949147    0.0000000000000000
    -0.0572277937949147    9.1568400055070889    0.0000000000000000
     0.0000000000000000    0.0000000000000000    9.1600179803218928
   O    Na   Al   Si   Cl   K 
    24     4     6     6     2     4
Direct
  0.1432881040363661  0.4529589065096116  0.1466554625717998
  0.8567118959636344  0.5470410934903883  0.1466554625717998
  0.8583805354230897  0.4551604558356349  0.8428521667419084
  0.1416194645769108  0.5448395441643652  0.8428521667419084
  0.1626429619972945  0.1541914852839937  0.4452348690340157
  0.1417842687670052  0.8691953396438601  0.5362841415385871
  0.8373570380027053  0.8458085147160064  0.4452348690340157
  0.8582157312329951  0.1308046603561397  0.5362841415385871
  0.4511115329510148  0.1538162694111757  0.1387739112504940
  0.5431886870897279  0.1501185224947866  0.8542781123871267
  0.4568113129102723  0.8498814775052131  0.8542781123871267
  0.5488884670489845  0.8461837305888241  0.1387739112504940
  0.9529589065096117  0.6432881040363656  0.6466554625717993
  0.0470410934903883  0.3567118959636338  0.6466554625717993
  0.9551604558356348  0.3583805354230890  0.3428521667419086
  0.0448395441643651  0.6416194645769103  0.3428521667419086
  0.6541914852839936  0.6626429619972947  0.9452348690340158
  0.3691953396438603  0.6417842687670049  0.0362841415385870
  0.3458085147160060  0.3373570380027058  0.9452348690340158
  0.6308046603561399  0.3582157312329947  0.0362841415385870
  0.6538162694111759  0.9511115329510155  0.6387739112504938
  0.6501185224947869  0.0431886870897275  0.3542781123871265
  0.3498814775052135  0.9568113129102721  0.3542781123871265
  0.3461837305888241  0.0488884670489850  0.6387739112504938
  0.1931435377770619  0.1945998463722028  0.1902027061850961
  0.8068564622229381  0.8054001536277974  0.1902027061850961
  0.6945998463722026  0.6931435377770619  0.6902027061850969
  0.3054001536277977  0.3068564622229380  0.6902027061850969
  0.2504042848173378  0.4965246307967016 -0.0082877359674445
  0.7495957151826619  0.5034753692032986 -0.0082877359674445
  0.0034753692032984  0.2495957151826619  0.4917122640325555
 -0.0034753692032984  0.7504042848173381  0.4917122640325555
  0.5000000000000000 -0.0000000000000000  0.2431334272361618
  0.5000000000000000 -0.0000000000000000  0.7431334272361623
  0.2498911970481313  0.0059354177027529  0.4925820460872167
  0.7501088029518693 -0.0059354177027529  0.4925820460872167
  0.4940645822972470  0.2501088029518685 -0.0074179539127834
  0.5059354177027530  0.7498911970481307 -0.0074179539127834
 -0.0000000000000000  0.5000000000000000  0.2433414040475320
 -0.0000000000000000  0.5000000000000000  0.7433414040475327
 -0.0000000000000000 -0.0000000000000000  0.0692511256560948
  0.5000000000000000  0.5000000000000000  0.5692511256560950
  0.8357544862696294  0.1628017683747282  0.8335613417013059
  0.1642455137303707  0.8371982316252717  0.8335613417013059
  0.6628017683747283  0.3357544862696294  0.3335613417013058
  0.3371982316252721  0.6642455137303706  0.3335613417013057
 
  0.00000000E+00  0.00000000E+00  0.00000000E+00
  0.00000000E+00  0.00000000E+00  0.00000000E+00
  0.00000000E+00  0.00000000E+00  0.00000000E+00
  0.00000000E+00  0.00000000E+00  0.00000000E+00
  0.00000000E+00  0.00000000E+00  0.00000000E+00
  0.00000000E+00  0.00000000E+00  0.00000000E+00
  0.00000000E+00  0.00000000E+00  0.00000000E+00
  0.00000000E+00  0.00000000E+00  0.00000000E+00
  0.00000000E+00  0.00000000E+00  0.00000000E+00
  0.00000000E+00  0.00000000E+00  0.00000000E+00
  0.00000000E+00  0.00000000E+00  0.00000000E+00
  0.00000000E+00  0.00000000E+00  0.00000000E+00
  0.00000000E+00  0.00000000E+00  0.00000000E+00
  0.00000000E+00  0.00000000E+00  0.00000000E+00
  0.00000000E+00  0.00000000E+00  0.00000000E+00
  0.00000000E+00  0.00000000E+00  0.00000000E+00
  0.00000000E+00  0.00000000E+00  0.00000000E+00
  0.00000000E+00  0.00000000E+00  0.00000000E+00
  0.00000000E+00  0.00000000E+00  0.00000000E+00
  0.00000000E+00  0.00000000E+00  0.00000000E+00
  0.00000000E+00  0.00000000E+00  0.00000000E+00
  0.00000000E+00  0.00000000E+00  0.00000000E+00
  0.00000000E+00  0.00000000E+00  0.00000000E+00
  0.00000000E+00  0.00000000E+00  0.00000000E+00
  0.00000000E+00  0.00000000E+00  0.00000000E+00
  0.00000000E+00  0.00000000E+00  0.00000000E+00
  0.00000000E+00  0.00000000E+00  0.00000000E+00
  0.00000000E+00  0.00000000E+00  0.00000000E+00
  0.00000000E+00  0.00000000E+00  0.00000000E+00
  0.00000000E+00  0.00000000E+00  0.00000000E+00
  0.00000000E+00  0.00000000E+00  0.00000000E+00
  0.00000000E+00  0.00000000E+00  0.00000000E+00
  0.00000000E+00  0.00000000E+00  0.00000000E+00
  0.00000000E+00  0.00000000E+00  0.00000000E+00
  0.00000000E+00  0.00000000E+00  0.00000000E+00
  0.00000000E+00  0.00000000E+00  0.00000000E+00
  0.00000000E+00  0.00000000E+00  0.00000000E+00
  0.00000000E+00  0.00000000E+00  0.00000000E+00
  0.00000000E+00  0.00000000E+00  0.00000000E+00
  0.00000000E+00  0.00000000E+00  0.00000000E+00
  0.00000000E+00  0.00000000E+00  0.00000000E+00
  0.00000000E+00  0.00000000E+00  0.00000000E+00
  0.00000000E+00  0.00000000E+00  0.00000000E+00
  0.00000000E+00  0.00000000E+00  0.00000000E+00
  0.00000000E+00  0.00000000E+00  0.00000000E+00
  0.00000000E+00  0.00000000E+00  0.00000000E+00
