Sodilite                                
   1.00000000000000     
     9.2266100657334711   -0.0145253849044815   -0.0355943578532822
    -0.0145160923738157    9.2264545356453027   -0.0129627600445803
    -0.0355772559578369   -0.0129700263850436    9.2273243481695619
   O    Na   Al   Si   Cl   K 
    24     3     6     6     2     5
Direct
  0.1487206663305484  0.4518748187052316  0.1570180874813883
  0.8622968763484460  0.5318479038720885  0.1470336703636034
  0.8494628552677759  0.4624456056198957  0.8412541777431471
  0.1371412965738630  0.5323108868838703  0.8508206484336260
  0.1603871765192802  0.1471679666562278  0.4547240282918267
  0.1423142305982858  0.8621406370988269  0.5352275711390180
  0.8401243403594448  0.8453833205267953  0.4616640404515029
  0.8515840115442909  0.1326613828793132  0.5317799010791070
  0.4561112344851243  0.1557609578604672  0.1507196589679775
  0.5299831088405051  0.1411961573756232  0.8621539861409173
  0.4604581172567904  0.8358241739555659  0.8493163887316704
  0.5365926052905822  0.8510903329539892  0.1340920067157641
  0.9593184916562272  0.6397076933643973  0.6504324683599022
  0.0335204875337570  0.3513061617291904  0.6525160024936772
  0.9622821880486986  0.3571795076182396  0.3501711712396566
  0.0451134019827068  0.6420979259468016  0.3426242730073488
  0.6412488229019080  0.6480162134118802  0.9601803365532077
  0.3537549538688193  0.6506755885613306  0.0431646920996497
  0.3583446889087552  0.3468803957715367  0.9616217395406894
  0.6437354697040663  0.3402687316655264  0.0354268269469972
  0.6604689771670785  0.9556050659026412  0.6520431609754151
  0.6418991636690182  0.0307495747213661  0.3646038529379369
  0.3380089587153310  0.9496337102036341  0.3471450435012718
  0.3536656438852038  0.0318803861586200  0.6321435720075556
  0.2036882300518533  0.2020416655280235  0.2024659677845576
  0.6911716427285335  0.6932787870467476  0.6909520022028695
  0.3026525040038653  0.6971740375675877  0.3011516520511389
  0.2486527676390248  0.4953997290427933  0.0014846049541855
  0.7482545735978106  0.4947951807346857 -0.0023219472311580
  0.0014811977584495  0.2444661488852020  0.4971580611325204
 -0.0024740692707417  0.7449475326734212  0.4964781837458888
  0.4939394493820013 -0.0044627596808083  0.2488594037632292
  0.4994275041028491 -0.0088354967739099  0.7478315421059457
  0.2486102606756475 -0.0034339101702207  0.4926774308577712
  0.7480664073559021 -0.0090840334623389  0.5012807322007286
  0.4968377496193629  0.2449199023473854  0.0020025514277743
  0.4974082658327502  0.7454169004464906 -0.0029423755537151
  0.0035823104948418  0.4953205868069559  0.2488463059630155
 -0.0042415928420211  0.4956730971450155  0.7483196926589391
  0.0368015510835737  0.0330559981375289  0.0367142367245482
  0.4962893926823440  0.5640236512868225  0.4961124679897699
  0.8261773951807334  0.8250022753787168  0.1713977570324970
  0.8267996419587748  0.1692531548260841  0.8280367689647767
  0.1706006000304724  0.8255415658632430  0.8250412127177081
  0.3311009362226981  0.3313032371586483  0.6680847014637198
  0.6686355142547667  0.3304976497688660  0.3324917418404294
 
  0.00000000E+00  0.00000000E+00  0.00000000E+00
  0.00000000E+00  0.00000000E+00  0.00000000E+00
  0.00000000E+00  0.00000000E+00  0.00000000E+00
  0.00000000E+00  0.00000000E+00  0.00000000E+00
  0.00000000E+00  0.00000000E+00  0.00000000E+00
  0.00000000E+00  0.00000000E+00  0.00000000E+00
  0.00000000E+00  0.00000000E+00  0.00000000E+00
  0.00000000E+00  0.00000000E+00  0.00000000E+00
  0.00000000E+00  0.00000000E+00  0.00000000E+00
  0.00000000E+00  0.00000000E+00  0.00000000E+00
  0.00000000E+00  0.00000000E+00  0.00000000E+00
  0.00000000E+00  0.00000000E+00  0.00000000E+00
  0.00000000E+00  0.00000000E+00  0.00000000E+00
  0.00000000E+00  0.00000000E+00  0.00000000E+00
  0.00000000E+00  0.00000000E+00  0.00000000E+00
  0.00000000E+00  0.00000000E+00  0.00000000E+00
  0.00000000E+00  0.00000000E+00  0.00000000E+00
  0.00000000E+00  0.00000000E+00  0.00000000E+00
  0.00000000E+00  0.00000000E+00  0.00000000E+00
  0.00000000E+00  0.00000000E+00  0.00000000E+00
  0.00000000E+00  0.00000000E+00  0.00000000E+00
  0.00000000E+00  0.00000000E+00  0.00000000E+00
  0.00000000E+00  0.00000000E+00  0.00000000E+00
  0.00000000E+00  0.00000000E+00  0.00000000E+00
  0.00000000E+00  0.00000000E+00  0.00000000E+00
  0.00000000E+00  0.00000000E+00  0.00000000E+00
  0.00000000E+00  0.00000000E+00  0.00000000E+00
  0.00000000E+00  0.00000000E+00  0.00000000E+00
  0.00000000E+00  0.00000000E+00  0.00000000E+00
  0.00000000E+00  0.00000000E+00  0.00000000E+00
  0.00000000E+00  0.00000000E+00  0.00000000E+00
  0.00000000E+00  0.00000000E+00  0.00000000E+00
  0.00000000E+00  0.00000000E+00  0.00000000E+00
  0.00000000E+00  0.00000000E+00  0.00000000E+00
  0.00000000E+00  0.00000000E+00  0.00000000E+00
  0.00000000E+00  0.00000000E+00  0.00000000E+00
  0.00000000E+00  0.00000000E+00  0.00000000E+00
  0.00000000E+00  0.00000000E+00  0.00000000E+00
  0.00000000E+00  0.00000000E+00  0.00000000E+00
  0.00000000E+00  0.00000000E+00  0.00000000E+00
  0.00000000E+00  0.00000000E+00  0.00000000E+00
  0.00000000E+00  0.00000000E+00  0.00000000E+00
  0.00000000E+00  0.00000000E+00  0.00000000E+00
  0.00000000E+00  0.00000000E+00  0.00000000E+00
  0.00000000E+00  0.00000000E+00  0.00000000E+00
  0.00000000E+00  0.00000000E+00  0.00000000E+00
