Sodilite                                
   1.00000000000000     
     9.3433428848677025   -0.0092615315981090    0.0092615352135716
    -0.0092615352135716    9.3433428848677025    0.0092615315981090
     0.0092615315981090    0.0092615352135716    9.3433428848677025
   O    Na   Al   Si   Cl   K 
    24     1     6     6     2     7
Direct
  0.1399100590482373  0.4781918199622286  0.1473356971819940
  0.8514058364240846  0.5330502087346779  0.1576203447217925
  0.8614992350027763  0.4771829397944829  0.8499342359438350
  0.1495305607383691  0.5244766683049322  0.8413659092287629
  0.1586340907712370  0.1495305607383691  0.4755233316950676
  0.1500657640561652  0.8614992350027763  0.5228170602055169
  0.8423796552782072  0.8514058364240846  0.4669497912653220
  0.8526643028180061  0.1399100590482373  0.5218081800377715
  0.4771829397944829  0.1500657640561652  0.1385007649972237
  0.5244766683049322  0.1586340907712370  0.8504694392616310
  0.4781918199622286  0.8526643028180061  0.8600899409517627
  0.5330502087346780  0.8423796552782072  0.1485941635759152
  0.9774002730615043  0.6469299797995454  0.6529257205489810
  0.0225647576872512  0.3575913222482936  0.6512588789343596
  0.9763706224988339  0.3565907156823478  0.3430798485110558
  0.0262719744653907  0.6443446635210491  0.3469317199157383
  0.6443446635210491  0.6530682800842617  0.9737280255346091
  0.3565907156823478  0.6569201514889444  0.0236293775011663
  0.3575913222482936  0.3487411210656403  0.9774352423127490
  0.6469299797995454  0.3470742794510192  0.0225997269384958
  0.6569201514889444  0.9763706224988339  0.6434092843176524
  0.6530682800842617  0.0262719744653907  0.3556553364789506
  0.3470742794510192  0.9774002730615043  0.3530700202004549
  0.3487411210656404  0.0225647576872512  0.6424086777517061
  0.7947643500800927  0.7947643500800927  0.2052356499199075
  0.2515539045628502  0.5026273207520529 -0.0021269940369264
  0.7518996121248422  0.5024255422747246  0.0004967374539544
  0.0021269940369264  0.2515539045628502  0.4973726792479470
 -0.0004967374539544  0.7518996121248422  0.4975744577252758
  0.5024255422747246 -0.0004967374539544  0.2481003878751574
  0.5026273207520529  0.0021269940369264  0.7484460954371497
  0.2514116425425105  0.0025335482440526  0.4980702337815908
  0.7516420575444728 -0.0010821860858057  0.4969441762939390
  0.5019297662184096  0.2514116425425105 -0.0025335482440526
  0.5030558237060612  0.7516420575444728  0.0010821860858057
 -0.0010821860858057  0.5030558237060612  0.2483579424555272
  0.0025335482440526  0.5019297662184096  0.7485883574574894
 -0.0331166184122511 -0.0331166184122511  0.0331166184122511
  0.5032778761350835  0.5032778761350835  0.4967221238649167
  0.1777543956240451  0.1782856543843589  0.1776975160630795
  0.8223024839369202  0.1777543956240451  0.8217143456156411
  0.1782856543843589  0.8223024839369202  0.8222456043759553
  0.6858781981573044  0.6852624944605991  0.6854295372137096
  0.3185341323929292  0.3185341323929292  0.6814658676070706
  0.6852624944605991  0.3145704627862902  0.3141218018426956
  0.3145704627862902  0.6858781981573044  0.3147375055394014
 
  0.00000000E+00  0.00000000E+00  0.00000000E+00
  0.00000000E+00  0.00000000E+00  0.00000000E+00
  0.00000000E+00  0.00000000E+00  0.00000000E+00
  0.00000000E+00  0.00000000E+00  0.00000000E+00
  0.00000000E+00  0.00000000E+00  0.00000000E+00
  0.00000000E+00  0.00000000E+00  0.00000000E+00
  0.00000000E+00  0.00000000E+00  0.00000000E+00
  0.00000000E+00  0.00000000E+00  0.00000000E+00
  0.00000000E+00  0.00000000E+00  0.00000000E+00
  0.00000000E+00  0.00000000E+00  0.00000000E+00
  0.00000000E+00  0.00000000E+00  0.00000000E+00
  0.00000000E+00  0.00000000E+00  0.00000000E+00
  0.00000000E+00  0.00000000E+00  0.00000000E+00
  0.00000000E+00  0.00000000E+00  0.00000000E+00
  0.00000000E+00  0.00000000E+00  0.00000000E+00
  0.00000000E+00  0.00000000E+00  0.00000000E+00
  0.00000000E+00  0.00000000E+00  0.00000000E+00
  0.00000000E+00  0.00000000E+00  0.00000000E+00
  0.00000000E+00  0.00000000E+00  0.00000000E+00
  0.00000000E+00  0.00000000E+00  0.00000000E+00
  0.00000000E+00  0.00000000E+00  0.00000000E+00
  0.00000000E+00  0.00000000E+00  0.00000000E+00
  0.00000000E+00  0.00000000E+00  0.00000000E+00
  0.00000000E+00  0.00000000E+00  0.00000000E+00
  0.00000000E+00  0.00000000E+00  0.00000000E+00
  0.00000000E+00  0.00000000E+00  0.00000000E+00
  0.00000000E+00  0.00000000E+00  0.00000000E+00
  0.00000000E+00  0.00000000E+00  0.00000000E+00
  0.00000000E+00  0.00000000E+00  0.00000000E+00
  0.00000000E+00  0.00000000E+00  0.00000000E+00
  0.00000000E+00  0.00000000E+00  0.00000000E+00
  0.00000000E+00  0.00000000E+00  0.00000000E+00
  0.00000000E+00  0.00000000E+00  0.00000000E+00
  0.00000000E+00  0.00000000E+00  0.00000000E+00
  0.00000000E+00  0.00000000E+00  0.00000000E+00
  0.00000000E+00  0.00000000E+00  0.00000000E+00
  0.00000000E+00  0.00000000E+00  0.00000000E+00
  0.00000000E+00  0.00000000E+00  0.00000000E+00
  0.00000000E+00  0.00000000E+00  0.00000000E+00
  0.00000000E+00  0.00000000E+00  0.00000000E+00
  0.00000000E+00  0.00000000E+00  0.00000000E+00
  0.00000000E+00  0.00000000E+00  0.00000000E+00
  0.00000000E+00  0.00000000E+00  0.00000000E+00
  0.00000000E+00  0.00000000E+00  0.00000000E+00
  0.00000000E+00  0.00000000E+00  0.00000000E+00
  0.00000000E+00  0.00000000E+00  0.00000000E+00
