Sodilite                                
   1.00000000000000     
     9.3433615266129628   -0.0093048391331696   -0.0093048398088759
    -0.0093048398088759    9.3433615266129628   -0.0093048391331696
    -0.0093048391331696   -0.0093048398088759    9.3433615266129628
   O    Na   Al   Si   Cl   K 
    24     1     6     6     2     7
Direct
  0.1424072032029637  0.4774522278173302  0.1512568952850405
  0.8530687060600880  0.5225915324511221  0.1529250401658806
  0.8556529954127373  0.4737348215088728  0.8469275749140855
  0.1434067255701342  0.5236176878716711  0.8430786423267487
  0.1512568952850405  0.1424072032029637  0.4774522278173302
  0.1529250401658806  0.8530687060600880  0.5225915324511221
  0.8469275749140855  0.8556529954127373  0.4737348215088728
  0.8430786423267487  0.1434067255701342  0.5236176878716711
  0.4774522278173302  0.1512568952850405  0.1424072032029637
  0.5225915324511221  0.1529250401658806  0.8530687060600880
  0.4737348215088728  0.8469275749140855  0.8556529954127373
  0.5236176878716711  0.8430786423267487  0.1434067255701342
  0.9669555564887744  0.6485901516369702  0.6576185598123844
  0.0217981397488967  0.3600885473240544  0.6473373363452972
  0.9755369065435706  0.3504747588283930  0.3413679032723637
  0.0228024321110103  0.6385057760551170  0.3499292899622463
  0.6485901516369702  0.6576185598123844  0.9669555564887744
  0.3600885473240544  0.6473373363452972  0.0217981397488967
  0.3504747588283930  0.3413679032723637  0.9755369065435706
  0.6385057760551170  0.3499292899622463  0.0228024321110103
  0.6576185598123844  0.9669555564887744  0.6485901516369702
  0.6473373363452972  0.0217981397488967  0.3600885473240544
  0.3413679032723637  0.9755369065435706  0.3504747588283930
  0.3499292899622463  0.0228024321110103  0.6385057760551170
  0.7052308714483640  0.7052308714483640  0.7052308714483640
  0.2484445134822697  0.4978725252852328 -0.0026278881823460
  0.7481004768889503  0.5004960586165879 -0.0024285743654584
 -0.0026278881823460  0.2484445134822697  0.4978725252852328
 -0.0024285743654584  0.7481004768889503  0.5004960586165879
  0.4978725252852328 -0.0026278881823460  0.2484445134822697
  0.5004960586165879 -0.0024285743654584  0.7481004768889503
  0.2485865774525110 -0.0019311439880505  0.4974691552047857
  0.7483557409670631 -0.0030602053498802  0.5010825812179891
  0.4974691552047857  0.2485865774525110 -0.0019311439880505
  0.5010825812179891  0.7483557409670631 -0.0030602053498802
 -0.0019311439880505  0.4974691552047857  0.2485865774525110
 -0.0030602053498802  0.5010825812179891  0.7483557409670631
 -0.0032577994801364 -0.0032577994801364 -0.0032577994801364
  0.5331095605486721  0.5331095605486721  0.5331095605486721
  0.1814854964205376  0.1814854964205376  0.1814854964205376
  0.8147416570826392  0.8141257125653171  0.1854253630913764
  0.8141257125653171  0.1854253630913764  0.8147416570826392
  0.1854253630913764  0.8147416570826392  0.8141257125653171
  0.3217122325880342  0.3222437361244846  0.6776979416653029
  0.6776979416653029  0.3217122325880342  0.3222437361244846
  0.3222437361244846  0.6776979416653029  0.3217122325880342
 
  0.00000000E+00  0.00000000E+00  0.00000000E+00
  0.00000000E+00  0.00000000E+00  0.00000000E+00
  0.00000000E+00  0.00000000E+00  0.00000000E+00
  0.00000000E+00  0.00000000E+00  0.00000000E+00
  0.00000000E+00  0.00000000E+00  0.00000000E+00
  0.00000000E+00  0.00000000E+00  0.00000000E+00
  0.00000000E+00  0.00000000E+00  0.00000000E+00
  0.00000000E+00  0.00000000E+00  0.00000000E+00
  0.00000000E+00  0.00000000E+00  0.00000000E+00
  0.00000000E+00  0.00000000E+00  0.00000000E+00
  0.00000000E+00  0.00000000E+00  0.00000000E+00
  0.00000000E+00  0.00000000E+00  0.00000000E+00
  0.00000000E+00  0.00000000E+00  0.00000000E+00
  0.00000000E+00  0.00000000E+00  0.00000000E+00
  0.00000000E+00  0.00000000E+00  0.00000000E+00
  0.00000000E+00  0.00000000E+00  0.00000000E+00
  0.00000000E+00  0.00000000E+00  0.00000000E+00
  0.00000000E+00  0.00000000E+00  0.00000000E+00
  0.00000000E+00  0.00000000E+00  0.00000000E+00
  0.00000000E+00  0.00000000E+00  0.00000000E+00
  0.00000000E+00  0.00000000E+00  0.00000000E+00
  0.00000000E+00  0.00000000E+00  0.00000000E+00
  0.00000000E+00  0.00000000E+00  0.00000000E+00
  0.00000000E+00  0.00000000E+00  0.00000000E+00
  0.00000000E+00  0.00000000E+00  0.00000000E+00
  0.00000000E+00  0.00000000E+00  0.00000000E+00
  0.00000000E+00  0.00000000E+00  0.00000000E+00
  0.00000000E+00  0.00000000E+00  0.00000000E+00
  0.00000000E+00  0.00000000E+00  0.00000000E+00
  0.00000000E+00  0.00000000E+00  0.00000000E+00
  0.00000000E+00  0.00000000E+00  0.00000000E+00
  0.00000000E+00  0.00000000E+00  0.00000000E+00
  0.00000000E+00  0.00000000E+00  0.00000000E+00
  0.00000000E+00  0.00000000E+00  0.00000000E+00
  0.00000000E+00  0.00000000E+00  0.00000000E+00
  0.00000000E+00  0.00000000E+00  0.00000000E+00
  0.00000000E+00  0.00000000E+00  0.00000000E+00
  0.00000000E+00  0.00000000E+00  0.00000000E+00
  0.00000000E+00  0.00000000E+00  0.00000000E+00
  0.00000000E+00  0.00000000E+00  0.00000000E+00
  0.00000000E+00  0.00000000E+00  0.00000000E+00
  0.00000000E+00  0.00000000E+00  0.00000000E+00
  0.00000000E+00  0.00000000E+00  0.00000000E+00
  0.00000000E+00  0.00000000E+00  0.00000000E+00
  0.00000000E+00  0.00000000E+00  0.00000000E+00
  0.00000000E+00  0.00000000E+00  0.00000000E+00
