Sodilite                                
   1.00000000000000     
     9.0447691822547380    0.0000000000000000   -0.0317080508726110
     0.0000000000000000    9.0537187482913346    0.0000000000000000
    -0.0317168438338627    0.0000000000000000    9.0476950789908663
   O    Na   Al   Si   Cl   K 
    24     6     6     6     2     2
Direct
  0.1536445224885802  0.4384518565826149  0.1633939933202619
  0.8716559999459592  0.5447194658580141  0.1383185770775194
  0.8463554775114200  0.4384518565826149  0.8366060066797383
  0.1283440000540406  0.5447194658580141  0.8616814229224805
  0.1504529718527250  0.1389579531981464  0.4414849492143589
  0.1505827895139493  0.8573843945834878  0.5504325134373526
  0.8494172104860505  0.8573843945834878  0.4495674865626479
  0.8495470281472748  0.1389579531981464  0.5585150507856416
  0.4417679756230570  0.1476270504203888  0.1397833982162837
  0.5582320243769429  0.1476270504203888  0.8602166017837158
  0.4493336676707904  0.8463893983767523  0.8583057084891580
  0.5506663323292093  0.8463893983767523  0.1416942915108415
  0.9446784499552748  0.6391488521635349  0.6525935327000398
  0.0589405829432081  0.3580857101932400  0.6488840887971744
  0.9410594170567925  0.3580857101932400  0.3511159112028256
  0.0553215500447248  0.6391488521635349  0.3474064672999606
  0.6423518490090896  0.6477673049506639  0.9456744667452645
  0.3576481509909105  0.6477673049506639  0.0543255332547355
  0.3609897331105124  0.3469718040056834  0.9397058907846152
  0.6390102668894878  0.3469718040056834  0.0602941092153852
  0.6497580037370626  0.9412947300736577  0.6404907488775436
  0.6517068943072023  0.0561675811652024  0.3590007347198679
  0.3502419962629376  0.9412947300736577  0.3595092511224565
  0.3482931056927975  0.0561675811652024  0.6409992652801324
  0.1944319258301528  0.1899109934484319  0.1941265883483322
  0.8055680741698477  0.1899109934484319  0.8058734116516676
  0.6796231487501920  0.6772342363031014  0.6809489417793673
  0.3169394907065734  0.3163800525612183  0.6819679804302853
  0.6830605092934271  0.3163800525612183  0.3180320195697148
  0.3203768512498087  0.6772342363031014  0.3190510582206328
  0.2500840619339268  0.4929111279879746  0.0035627653301445
  0.7499159380660733  0.4929111279879746 -0.0035627653301445
 -0.0000000000000000  0.2473526239149483  0.5000000000000000
 -0.0000000000000000  0.7459211432972153  0.5000000000000000
  0.4998428326904846 -0.0022235379824575  0.2503279387910399
  0.5001571673095154 -0.0022235379824575  0.7496720612089601
  0.2501318518203242 -0.0018485770349375  0.4987271156938403
  0.7498681481796757 -0.0018485770349375  0.5012728843061600
  0.5000000000000000  0.2469595593124619 -0.0000000000000000
  0.5000000000000000  0.7460220331058603 -0.0000000000000000
  0.0045592236752686  0.4939656057213874  0.2500108473312951
 -0.0045592236752686  0.4939656057213874  0.7499891526687053
 -0.0000000000000000  0.0819985204245406 -0.0000000000000000
  0.5000000000000000  0.4944922415103757  0.5000000000000000
  0.8436589998004761  0.8393309366411928  0.1568316468763586
  0.1563410001995242  0.8393309366411928  0.8431683531236417
 
  0.00000000E+00  0.00000000E+00  0.00000000E+00
  0.00000000E+00  0.00000000E+00  0.00000000E+00
  0.00000000E+00  0.00000000E+00  0.00000000E+00
  0.00000000E+00  0.00000000E+00  0.00000000E+00
  0.00000000E+00  0.00000000E+00  0.00000000E+00
  0.00000000E+00  0.00000000E+00  0.00000000E+00
  0.00000000E+00  0.00000000E+00  0.00000000E+00
  0.00000000E+00  0.00000000E+00  0.00000000E+00
  0.00000000E+00  0.00000000E+00  0.00000000E+00
  0.00000000E+00  0.00000000E+00  0.00000000E+00
  0.00000000E+00  0.00000000E+00  0.00000000E+00
  0.00000000E+00  0.00000000E+00  0.00000000E+00
  0.00000000E+00  0.00000000E+00  0.00000000E+00
  0.00000000E+00  0.00000000E+00  0.00000000E+00
  0.00000000E+00  0.00000000E+00  0.00000000E+00
  0.00000000E+00  0.00000000E+00  0.00000000E+00
  0.00000000E+00  0.00000000E+00  0.00000000E+00
  0.00000000E+00  0.00000000E+00  0.00000000E+00
  0.00000000E+00  0.00000000E+00  0.00000000E+00
  0.00000000E+00  0.00000000E+00  0.00000000E+00
  0.00000000E+00  0.00000000E+00  0.00000000E+00
  0.00000000E+00  0.00000000E+00  0.00000000E+00
  0.00000000E+00  0.00000000E+00  0.00000000E+00
  0.00000000E+00  0.00000000E+00  0.00000000E+00
  0.00000000E+00  0.00000000E+00  0.00000000E+00
  0.00000000E+00  0.00000000E+00  0.00000000E+00
  0.00000000E+00  0.00000000E+00  0.00000000E+00
  0.00000000E+00  0.00000000E+00  0.00000000E+00
  0.00000000E+00  0.00000000E+00  0.00000000E+00
  0.00000000E+00  0.00000000E+00  0.00000000E+00
  0.00000000E+00  0.00000000E+00  0.00000000E+00
  0.00000000E+00  0.00000000E+00  0.00000000E+00
  0.00000000E+00  0.00000000E+00  0.00000000E+00
  0.00000000E+00  0.00000000E+00  0.00000000E+00
  0.00000000E+00  0.00000000E+00  0.00000000E+00
  0.00000000E+00  0.00000000E+00  0.00000000E+00
  0.00000000E+00  0.00000000E+00  0.00000000E+00
  0.00000000E+00  0.00000000E+00  0.00000000E+00
  0.00000000E+00  0.00000000E+00  0.00000000E+00
  0.00000000E+00  0.00000000E+00  0.00000000E+00
  0.00000000E+00  0.00000000E+00  0.00000000E+00
  0.00000000E+00  0.00000000E+00  0.00000000E+00
  0.00000000E+00  0.00000000E+00  0.00000000E+00
  0.00000000E+00  0.00000000E+00  0.00000000E+00
  0.00000000E+00  0.00000000E+00  0.00000000E+00
  0.00000000E+00  0.00000000E+00  0.00000000E+00
