Sodilite                                
   1.00000000000000     
     9.0976831790234023   -0.0450136929679879   -0.0115954315987710
    -0.0450254872237490    9.0995795194982190    0.0109703910596177
    -0.0116102537004293    0.0109889007199476    9.0997066061906704
   O    Na   Al   Si   Cl   K 
    24     5     6     6     2     3
Direct
  0.1488110130975600  0.4471824176545869  0.1519821593055322
  0.8631408338435529  0.5488432987328116  0.1423948895536996
  0.8554164310046783  0.4404216258941222  0.8398407364009651
  0.1358755632127200  0.5467064403083307  0.8503543511925846
  0.1565221083018591  0.1456266911215392  0.4423788314510602
  0.1491002469572784  0.8617815963000032  0.5425573811779483
  0.8463393816396310  0.8531491058510762  0.4429539112627257
  0.8536581918131905  0.1355648674532949  0.5518664644492619
  0.4500173523295156  0.1471110233738762  0.1336823367903890
  0.5575649193302162  0.1533488835868521  0.8513346347774903
  0.4546593911113530  0.8542938764914583  0.8612979510212223
  0.5546716902126401  0.8405621595712527  0.1442119103757310
  0.9480045396311209  0.6402834475274132  0.6486104781442079
  0.0550998645569178  0.3576153533168083  0.6459502591845050
  0.9520101883496179  0.3568850633351462  0.3448335117320961
  0.0477829490845063  0.6403238146043311  0.3442365835741008
  0.6566130581143877  0.6614206596670293  0.9418696306974318
  0.3716457997898059  0.6387706516260472  0.0385846477688489
  0.3472256302869571  0.3340107042690200  0.9404554982408478
  0.6287868474673717  0.3605007154421316  0.0425751187816751
  0.6528071133038751  0.9432370559886635  0.6382221687687515
  0.6526001254887843  0.0478407166897624  0.3565591221704988
  0.3518627029789861  0.9538051821605104  0.3549247909618979
  0.3489154985995159  0.0524408603025648  0.6395577691862449
  0.1848372873914629  0.1869802677969462  0.1832328385459555
  0.8146981859789796  0.8137616030255631  0.1835350657176157
  0.8108477700103603  0.1875765349647605  0.8102090389630831
  0.6948385781896105  0.6926320188622830  0.6905545989617654
  0.3059754592687473  0.3054469345800233  0.6892945241154496
  0.2521238783763026  0.4930601630160081 -0.0064091737789626
  0.7516204455059314  0.5003941478581341 -0.0092167290057200
  0.0024786693885090  0.2478799588817091  0.4950870398114206
 -0.0005725085369670  0.7482522136046298  0.4949198430227404
  0.5035318118360314 -0.0022405380209402  0.2442752989310282
  0.5031668931023829  0.0003784464399238  0.7454119072361163
  0.2518076978294729  0.0023838969297454  0.4946285770908698
  0.7517967732257342 -0.0042006776434091  0.4964445950069639
  0.4974558332873018  0.2484954116061684 -0.0087858409634173
  0.5085725236452775  0.7481803886500203 -0.0049231998509773
  0.0027296699745866  0.4975600400689331  0.2445546522731324
 -0.0009721865666007  0.4962427140947543  0.7453719504672427
 -0.0355354527542137  0.0351769180165144  0.0299601650916567
  0.5012967960686254  0.4985211147263093  0.5761965956134885
  0.1585239803704872  0.8424030845172729  0.8414155979072000
  0.6599946896037374  0.3394769113339470  0.3360140592397663
  0.3416517642981989  0.6599122354220696  0.3369934586338639
 
  0.00000000E+00  0.00000000E+00  0.00000000E+00
  0.00000000E+00  0.00000000E+00  0.00000000E+00
  0.00000000E+00  0.00000000E+00  0.00000000E+00
  0.00000000E+00  0.00000000E+00  0.00000000E+00
  0.00000000E+00  0.00000000E+00  0.00000000E+00
  0.00000000E+00  0.00000000E+00  0.00000000E+00
  0.00000000E+00  0.00000000E+00  0.00000000E+00
  0.00000000E+00  0.00000000E+00  0.00000000E+00
  0.00000000E+00  0.00000000E+00  0.00000000E+00
  0.00000000E+00  0.00000000E+00  0.00000000E+00
  0.00000000E+00  0.00000000E+00  0.00000000E+00
  0.00000000E+00  0.00000000E+00  0.00000000E+00
  0.00000000E+00  0.00000000E+00  0.00000000E+00
  0.00000000E+00  0.00000000E+00  0.00000000E+00
  0.00000000E+00  0.00000000E+00  0.00000000E+00
  0.00000000E+00  0.00000000E+00  0.00000000E+00
  0.00000000E+00  0.00000000E+00  0.00000000E+00
  0.00000000E+00  0.00000000E+00  0.00000000E+00
  0.00000000E+00  0.00000000E+00  0.00000000E+00
  0.00000000E+00  0.00000000E+00  0.00000000E+00
  0.00000000E+00  0.00000000E+00  0.00000000E+00
  0.00000000E+00  0.00000000E+00  0.00000000E+00
  0.00000000E+00  0.00000000E+00  0.00000000E+00
  0.00000000E+00  0.00000000E+00  0.00000000E+00
  0.00000000E+00  0.00000000E+00  0.00000000E+00
  0.00000000E+00  0.00000000E+00  0.00000000E+00
  0.00000000E+00  0.00000000E+00  0.00000000E+00
  0.00000000E+00  0.00000000E+00  0.00000000E+00
  0.00000000E+00  0.00000000E+00  0.00000000E+00
  0.00000000E+00  0.00000000E+00  0.00000000E+00
  0.00000000E+00  0.00000000E+00  0.00000000E+00
  0.00000000E+00  0.00000000E+00  0.00000000E+00
  0.00000000E+00  0.00000000E+00  0.00000000E+00
  0.00000000E+00  0.00000000E+00  0.00000000E+00
  0.00000000E+00  0.00000000E+00  0.00000000E+00
  0.00000000E+00  0.00000000E+00  0.00000000E+00
  0.00000000E+00  0.00000000E+00  0.00000000E+00
  0.00000000E+00  0.00000000E+00  0.00000000E+00
  0.00000000E+00  0.00000000E+00  0.00000000E+00
  0.00000000E+00  0.00000000E+00  0.00000000E+00
  0.00000000E+00  0.00000000E+00  0.00000000E+00
  0.00000000E+00  0.00000000E+00  0.00000000E+00
  0.00000000E+00  0.00000000E+00  0.00000000E+00
  0.00000000E+00  0.00000000E+00  0.00000000E+00
  0.00000000E+00  0.00000000E+00  0.00000000E+00
  0.00000000E+00  0.00000000E+00  0.00000000E+00
