Sodilite                                
   1.00000000000000     
     9.1589861884017783    0.0257502120234546    0.0042620962551344
     0.0257472166635442    9.1511397876159357   -0.0257472166635442
     0.0042620962551344   -0.0257502120234546    9.1589861884017783
   O    Na   Al   Si   Cl   K 
    24     4     6     6     2     4
Direct
  0.1393453869333635  0.4456488162694812  0.1544571933960030
  0.8574955492297899  0.5441357519058374  0.1542196080036830
  0.8542870202043399  0.4621144507870087  0.8513615047972982
  0.1422137741888054  0.5469415861271317  0.8509140314594539
  0.1520230581801303  0.1428385166303791  0.4507775333943268
  0.1474111739887272  0.8593074161752077  0.5514774106452942
  0.8431875528701058  0.8553022228045036  0.4596810095982183
  0.8474652799790366  0.1414909214158690  0.5419267887394850
  0.4453557662632013  0.1616382609906046  0.1562568485558319
  0.5352089571264335  0.1425846248065753  0.8713583367364764
  0.4480181243630701  0.8351153406743542  0.8486476592932211
  0.5388412433023756  0.8609272619024819  0.1319469115565633
  0.9580732112605150  0.6414909214158688  0.6525347200209634
  0.0403189904017819  0.3553022228045037  0.6568124471298942
  0.9485225893547058  0.3593074161752078  0.3525888260112728
  0.0492224666056731  0.6428385166303788  0.3479769418198696
  0.6286416632635236  0.6425846248065753  0.9647910428735665
  0.3437431514441683  0.6616382609906044  0.0546442337367989
  0.3680530884434366  0.3609272619024820  0.9611587566976244
  0.6513523407067789  0.3351153406743540  0.0519818756369298
  0.6486384952027018  0.9621144507870084  0.6457129797956601
  0.6490859685405461  0.0469415861271312  0.3577862258111945
  0.3455428066039970  0.9456488162694806  0.3606546130666367
  0.3457803919963170  0.0441357519058374  0.6425044507702101
  0.1957357231367007  0.1963086868245895  0.1977167021973046
  0.1916997808780646  0.8063201185976293  0.8083521802032874
  0.6916478197967126  0.3063201185976296  0.3083002191219351
  0.3022832978026955  0.6963086868245894  0.3042642768632992
  0.2471627547446784  0.5026062745910439  0.0063912609170939
  0.7457236196471995  0.4967101243083216  0.0065824140661665
 -0.0014847215608407  0.2497576934793828  0.5016228905354818
 -0.0016228905354821  0.7497576934793829  0.5014847215608408
  0.4936087390829060  0.0026062745910441  0.2528372452553216
  0.4934175859338336 -0.0032898756916787  0.7542763803528005
  0.2471746356861654 -0.0014875173942546  0.5014636329798789
  0.7462241472258194  0.0008081222575470  0.5014810071250955
  0.4985251027634404  0.2498691839682230  0.0102718660884309
  0.4897281339115690  0.7498691839682233  0.0014748972365596
 -0.0014636329798790  0.4985124826057455  0.2528253643138345
 -0.0014810071250954  0.5008081222575469  0.7537758527741806
  0.0724008215154599  0.0011311071305527  0.0048034951564061
  0.4951965048435937  0.5011311071305528  0.4275991784845401
  0.8333868586628831  0.8365654331318584  0.1640149138253338
  0.8361389785109979  0.1633656026156728  0.8378153885696119
  0.6621846114303881  0.6633656026156728  0.6638610214890021
  0.3359850861746663  0.3365654331318582  0.6666131413371169
 
  0.00000000E+00  0.00000000E+00  0.00000000E+00
  0.00000000E+00  0.00000000E+00  0.00000000E+00
  0.00000000E+00  0.00000000E+00  0.00000000E+00
  0.00000000E+00  0.00000000E+00  0.00000000E+00
  0.00000000E+00  0.00000000E+00  0.00000000E+00
  0.00000000E+00  0.00000000E+00  0.00000000E+00
  0.00000000E+00  0.00000000E+00  0.00000000E+00
  0.00000000E+00  0.00000000E+00  0.00000000E+00
  0.00000000E+00  0.00000000E+00  0.00000000E+00
  0.00000000E+00  0.00000000E+00  0.00000000E+00
  0.00000000E+00  0.00000000E+00  0.00000000E+00
  0.00000000E+00  0.00000000E+00  0.00000000E+00
  0.00000000E+00  0.00000000E+00  0.00000000E+00
  0.00000000E+00  0.00000000E+00  0.00000000E+00
  0.00000000E+00  0.00000000E+00  0.00000000E+00
  0.00000000E+00  0.00000000E+00  0.00000000E+00
  0.00000000E+00  0.00000000E+00  0.00000000E+00
  0.00000000E+00  0.00000000E+00  0.00000000E+00
  0.00000000E+00  0.00000000E+00  0.00000000E+00
  0.00000000E+00  0.00000000E+00  0.00000000E+00
  0.00000000E+00  0.00000000E+00  0.00000000E+00
  0.00000000E+00  0.00000000E+00  0.00000000E+00
  0.00000000E+00  0.00000000E+00  0.00000000E+00
  0.00000000E+00  0.00000000E+00  0.00000000E+00
  0.00000000E+00  0.00000000E+00  0.00000000E+00
  0.00000000E+00  0.00000000E+00  0.00000000E+00
  0.00000000E+00  0.00000000E+00  0.00000000E+00
  0.00000000E+00  0.00000000E+00  0.00000000E+00
  0.00000000E+00  0.00000000E+00  0.00000000E+00
  0.00000000E+00  0.00000000E+00  0.00000000E+00
  0.00000000E+00  0.00000000E+00  0.00000000E+00
  0.00000000E+00  0.00000000E+00  0.00000000E+00
  0.00000000E+00  0.00000000E+00  0.00000000E+00
  0.00000000E+00  0.00000000E+00  0.00000000E+00
  0.00000000E+00  0.00000000E+00  0.00000000E+00
  0.00000000E+00  0.00000000E+00  0.00000000E+00
  0.00000000E+00  0.00000000E+00  0.00000000E+00
  0.00000000E+00  0.00000000E+00  0.00000000E+00
  0.00000000E+00  0.00000000E+00  0.00000000E+00
  0.00000000E+00  0.00000000E+00  0.00000000E+00
  0.00000000E+00  0.00000000E+00  0.00000000E+00
  0.00000000E+00  0.00000000E+00  0.00000000E+00
  0.00000000E+00  0.00000000E+00  0.00000000E+00
  0.00000000E+00  0.00000000E+00  0.00000000E+00
  0.00000000E+00  0.00000000E+00  0.00000000E+00
  0.00000000E+00  0.00000000E+00  0.00000000E+00
