Sodilite                                
   1.00000000000000     
     9.1744833087391022    0.0032182104332805    0.0244305209564546
     0.0032154290097864    9.1734405561024701   -0.0258866454172813
     0.0244303288977965   -0.0258898284252922    9.1822766814169565
   O    Na   Al   Si   Cl   K 
    24     4     6     6     2     4
Direct
  0.1367793075020680  0.4537351626884338  0.1506127517561097
  0.8536128606538752  0.5526271046602276  0.1540505285183420
  0.8580015308295195  0.4639229650645474  0.8519439303926055
  0.1452125555744767  0.5466010276167008  0.8440757439457903
  0.1553823641762607  0.1515031485191894  0.4521584245611633
  0.1446540796498009  0.8645353352135985  0.5415185948448663
  0.8374783288510459  0.8529482290077703  0.4502690178764313
  0.8536523881218717  0.1364379240115806  0.5402216523401190
  0.4465852657185766  0.1567516020913178  0.1450559859823480
  0.5370814103951241  0.1529275934853647  0.8612664909676505
  0.4543481452391208  0.8466138830286947  0.8531280322164834
  0.5452520670499420  0.8538572248606517  0.1395201567864541
  0.9582419170948305  0.6537588179193580  0.6583941240551365
  0.0347455559197275  0.3660491231364555  0.6459998771412931
  0.9476690447344553  0.3522843538218897  0.3396972240304841
  0.0386456217157011  0.6356265913625959  0.3557534456981311
  0.6317919092166718  0.6466720222289317  0.9612004096320684
  0.3467044952518590  0.6634492140247329  0.0427959223616448
  0.3636424530656544  0.3605101308489868  0.9625885171097984
  0.6489399114357727  0.3412003116835002  0.0484683730030929
  0.6432943810305658  0.9655372615800882  0.6348758337598649
  0.6562016741786660  0.0508093074496034  0.3486452511872036
  0.3529828411327781  0.9615213823136884  0.3645548746386780
  0.3372648969453362  0.0430708049421219  0.6495302464978140
  0.1910225577875774  0.1904451003179761  0.1937693235603040
  0.8083247092795129  0.8086569380740795  0.1922555831759766
  0.1872449625887408  0.8128951638162327  0.8178916466660739
  0.7034885836147899  0.2953935395421436  0.2948109030053839
  0.2460847976922536  0.5060387655774142  0.0015656488195532
  0.7468414978743843  0.5013172554669525  0.0038880522560643
 -0.0029168011443267  0.2531844003388741  0.4956349395030648
 -0.0057991886445786  0.7537142424732023  0.4999461693854848
  0.4986246474723970  0.0055926903239012  0.2492200780522424
  0.4940489972599268  0.0033612767080610  0.7499928777171141
  0.2466459016961004  0.0055305153326841  0.5010997939614639
  0.7469875721992517  0.0022305863240133  0.4941776928224311
  0.4985954471740348  0.2532701620962264  0.0043406886837259
  0.4944364294334822  0.7534775639857192  0.0000542986572001
 -0.0060338578071079  0.4997352217368095  0.2498432189764474
 -0.0019892048120696  0.5071216957891546  0.7502405534513223
  0.0281970825253100 -0.0285188915009930  0.0354299162922403
  0.5374013948875870  0.4624154721970242  0.4589333417690560
  0.8378211671315449  0.1628931654463625  0.8371712222086986
  0.6669027899749461  0.6715398148915773  0.6702227890036820
  0.3288516545813800  0.3340893693850636  0.6714191787789956
  0.3270538537511615  0.6726654301174917  0.3317666739499013
 
  0.00000000E+00  0.00000000E+00  0.00000000E+00
  0.00000000E+00  0.00000000E+00  0.00000000E+00
  0.00000000E+00  0.00000000E+00  0.00000000E+00
  0.00000000E+00  0.00000000E+00  0.00000000E+00
  0.00000000E+00  0.00000000E+00  0.00000000E+00
  0.00000000E+00  0.00000000E+00  0.00000000E+00
  0.00000000E+00  0.00000000E+00  0.00000000E+00
  0.00000000E+00  0.00000000E+00  0.00000000E+00
  0.00000000E+00  0.00000000E+00  0.00000000E+00
  0.00000000E+00  0.00000000E+00  0.00000000E+00
  0.00000000E+00  0.00000000E+00  0.00000000E+00
  0.00000000E+00  0.00000000E+00  0.00000000E+00
  0.00000000E+00  0.00000000E+00  0.00000000E+00
  0.00000000E+00  0.00000000E+00  0.00000000E+00
  0.00000000E+00  0.00000000E+00  0.00000000E+00
  0.00000000E+00  0.00000000E+00  0.00000000E+00
  0.00000000E+00  0.00000000E+00  0.00000000E+00
  0.00000000E+00  0.00000000E+00  0.00000000E+00
  0.00000000E+00  0.00000000E+00  0.00000000E+00
  0.00000000E+00  0.00000000E+00  0.00000000E+00
  0.00000000E+00  0.00000000E+00  0.00000000E+00
  0.00000000E+00  0.00000000E+00  0.00000000E+00
  0.00000000E+00  0.00000000E+00  0.00000000E+00
  0.00000000E+00  0.00000000E+00  0.00000000E+00
  0.00000000E+00  0.00000000E+00  0.00000000E+00
  0.00000000E+00  0.00000000E+00  0.00000000E+00
  0.00000000E+00  0.00000000E+00  0.00000000E+00
  0.00000000E+00  0.00000000E+00  0.00000000E+00
  0.00000000E+00  0.00000000E+00  0.00000000E+00
  0.00000000E+00  0.00000000E+00  0.00000000E+00
  0.00000000E+00  0.00000000E+00  0.00000000E+00
  0.00000000E+00  0.00000000E+00  0.00000000E+00
  0.00000000E+00  0.00000000E+00  0.00000000E+00
  0.00000000E+00  0.00000000E+00  0.00000000E+00
  0.00000000E+00  0.00000000E+00  0.00000000E+00
  0.00000000E+00  0.00000000E+00  0.00000000E+00
  0.00000000E+00  0.00000000E+00  0.00000000E+00
  0.00000000E+00  0.00000000E+00  0.00000000E+00
  0.00000000E+00  0.00000000E+00  0.00000000E+00
  0.00000000E+00  0.00000000E+00  0.00000000E+00
  0.00000000E+00  0.00000000E+00  0.00000000E+00
  0.00000000E+00  0.00000000E+00  0.00000000E+00
  0.00000000E+00  0.00000000E+00  0.00000000E+00
  0.00000000E+00  0.00000000E+00  0.00000000E+00
  0.00000000E+00  0.00000000E+00  0.00000000E+00
  0.00000000E+00  0.00000000E+00  0.00000000E+00
