Sodilite                                
   1.00000000000000     
     9.0385931343264829   -0.0002455845136554   -0.0321344859844432
    -0.0002431876811692    9.0331902862892477   -0.0002431876811692
    -0.0321344859844432   -0.0002455845136554    9.0385931343264829
   O    Na   Al   Si   Cl   K 
    24     6     6     6     2     2
Direct
  0.1474250244409530  0.4389009555549971  0.1545339388651519
  0.8641527128092519  0.5458558608701719  0.1462441898087892
  0.8551157473394012  0.4381565878503019  0.8437509380636885
  0.1336692864436081  0.5584395584211457  0.8554264527729852
  0.1459748086562122  0.1330434078703351  0.4416072515646481
  0.1549870121165009  0.8543020931246001  0.5616018922030400
  0.8556805270290310  0.8615527329618445  0.4515631231986716
  0.8437431638478372  0.1445873616170938  0.5584766872842686
  0.4421958323829713  0.1537909891832550  0.1453740397637059
  0.5570774312895045  0.1419876028553824  0.8639760553010191
  0.4378074760363728  0.8427005849429703  0.8548704459081994
  0.5498473018702068  0.8514552011882062  0.1352905548078639
  0.9416072515646479  0.6330434078703353  0.6459748086562123
  0.0616018922030402  0.3543020931246010  0.6549870121165013
  0.9515631231986716  0.3615527329618446  0.3556805270290307
  0.0584766872842685  0.6445873616170935  0.3437431638478375
  0.6453740397637062  0.6537909891832552  0.9421958323829711
  0.3639760553010192  0.6419876028553824  0.0570774312895042
  0.3548704459081991  0.3427005849429698  0.9378074760363730
  0.6352905548078636  0.3514552011882064  0.0498473018702067
  0.6545339388651518  0.9389009555549974  0.6474250244409535
  0.6462441898087896  0.0458558608701724  0.3641527128092518
  0.3437509380636884  0.9381565878503019  0.3551157473394013
  0.3554264527729853  0.0584395584211454  0.6336692864436074
  0.1854502280554622  0.1834264372004438  0.1838196607521474
  0.8149210435456862  0.1825907736846581  0.8150419554675719
  0.1866929162876171  0.8112412546129485  0.8127700624290095
  0.6838196607521473  0.6834264372004438  0.6854502280554624
  0.3127700624290097  0.3112412546129480  0.6866929162876171
  0.3150419554675717  0.6825907736846580  0.3149210435456862
  0.2499162182985605  0.4946944564872149 -0.0007641288829268
  0.7500769240527313  0.4972145430300781 -0.0038999229640160
  0.0009518919297394  0.2465519384511766  0.5036669579111704
  0.0036669579111705  0.7465519384511762  0.5009518919297389
  0.4961000770359840 -0.0027854569699218  0.2500769240527317
  0.4992358711170735 -0.0053055435127849  0.7499162182985607
  0.2500284409014989 -0.0046045648439690  0.4991013189526792
  0.7499955404286579 -0.0026979576979154  0.5050053122869721
  0.4969346921883332  0.2467812934504640 -0.0010149080459811
  0.4989850919540188  0.7467812934504642 -0.0030653078116668
  0.0050053122869726  0.4973020423020845  0.2499955404286583
 -0.0008986810473206  0.4953954351560309  0.7500284409014989
  0.0393740891013461  0.0344181621319155 -0.0396399888225221
  0.4603600111774780  0.5344181621319155  0.5393740891013461
  0.8471430150825580  0.8456107270526805  0.1540367872398199
  0.6540367872398200  0.3456107270526805  0.3471430150825580
 
  0.00000000E+00  0.00000000E+00  0.00000000E+00
  0.00000000E+00  0.00000000E+00  0.00000000E+00
  0.00000000E+00  0.00000000E+00  0.00000000E+00
  0.00000000E+00  0.00000000E+00  0.00000000E+00
  0.00000000E+00  0.00000000E+00  0.00000000E+00
  0.00000000E+00  0.00000000E+00  0.00000000E+00
  0.00000000E+00  0.00000000E+00  0.00000000E+00
  0.00000000E+00  0.00000000E+00  0.00000000E+00
  0.00000000E+00  0.00000000E+00  0.00000000E+00
  0.00000000E+00  0.00000000E+00  0.00000000E+00
  0.00000000E+00  0.00000000E+00  0.00000000E+00
  0.00000000E+00  0.00000000E+00  0.00000000E+00
  0.00000000E+00  0.00000000E+00  0.00000000E+00
  0.00000000E+00  0.00000000E+00  0.00000000E+00
  0.00000000E+00  0.00000000E+00  0.00000000E+00
  0.00000000E+00  0.00000000E+00  0.00000000E+00
  0.00000000E+00  0.00000000E+00  0.00000000E+00
  0.00000000E+00  0.00000000E+00  0.00000000E+00
  0.00000000E+00  0.00000000E+00  0.00000000E+00
  0.00000000E+00  0.00000000E+00  0.00000000E+00
  0.00000000E+00  0.00000000E+00  0.00000000E+00
  0.00000000E+00  0.00000000E+00  0.00000000E+00
  0.00000000E+00  0.00000000E+00  0.00000000E+00
  0.00000000E+00  0.00000000E+00  0.00000000E+00
  0.00000000E+00  0.00000000E+00  0.00000000E+00
  0.00000000E+00  0.00000000E+00  0.00000000E+00
  0.00000000E+00  0.00000000E+00  0.00000000E+00
  0.00000000E+00  0.00000000E+00  0.00000000E+00
  0.00000000E+00  0.00000000E+00  0.00000000E+00
  0.00000000E+00  0.00000000E+00  0.00000000E+00
  0.00000000E+00  0.00000000E+00  0.00000000E+00
  0.00000000E+00  0.00000000E+00  0.00000000E+00
  0.00000000E+00  0.00000000E+00  0.00000000E+00
  0.00000000E+00  0.00000000E+00  0.00000000E+00
  0.00000000E+00  0.00000000E+00  0.00000000E+00
  0.00000000E+00  0.00000000E+00  0.00000000E+00
  0.00000000E+00  0.00000000E+00  0.00000000E+00
  0.00000000E+00  0.00000000E+00  0.00000000E+00
  0.00000000E+00  0.00000000E+00  0.00000000E+00
  0.00000000E+00  0.00000000E+00  0.00000000E+00
  0.00000000E+00  0.00000000E+00  0.00000000E+00
  0.00000000E+00  0.00000000E+00  0.00000000E+00
  0.00000000E+00  0.00000000E+00  0.00000000E+00
  0.00000000E+00  0.00000000E+00  0.00000000E+00
  0.00000000E+00  0.00000000E+00  0.00000000E+00
  0.00000000E+00  0.00000000E+00  0.00000000E+00
