Sodilite                                
   1.00000000000000     
     9.1606991335316632   -0.0064596798698584   -0.0255969643727496
    -0.0064596798698584    9.1606991335316632   -0.0255969643727496
    -0.0255848457747043   -0.0255848457747043    9.1490836220567964
   O    Na   Al   Si   Cl   K 
    24     4     6     6     2     4
Direct
  0.1390300301880357  0.4482395766678665  0.1496790804234235
  0.8541410765672059  0.5397016762296981  0.1551986454409962
  0.8574951446702533  0.4588483147059833  0.8514485778300400
  0.1425760764566134  0.5499915525086806  0.8454690911027924
  0.1515518119877020  0.1398144330182190  0.4521870724849637
  0.1479363432708561  0.8567957007974154  0.5525397172511879
  0.8469310404889230  0.8546883770514515  0.4570697819384146
  0.8437172399481431  0.1402018994030774  0.5396195141415494
  0.4493447665991115  0.1599115992388841  0.1553435860172160
  0.5336469423836084  0.1379451725865413  0.8677646621796904
  0.4437845758900826  0.8337025084002072  0.8474780102508382
  0.5401879022967506  0.8574912491063883  0.1291226500170154
  0.9482395766678666  0.6390300301880357  0.6496790804234237
  0.0397016762296983  0.3541410765672062  0.6551986454409968
  0.9588483147059835  0.3574951446702531  0.3514485778300404
  0.0499915525086804  0.6425760764566135  0.3454690911027926
  0.6398144330182191  0.6515518119877023  0.9521870724849635
  0.3567957007974155  0.6479363432708563  0.0525397172511880
  0.3546883770514514  0.3469310404889231  0.9570697819384147
  0.6402018994030771  0.3437172399481426  0.0396195141415494
  0.6599115992388841  0.9493447665991113  0.6553435860172159
  0.6379451725865414  0.0336469423836085  0.3677646621796904
  0.3337025084002069  0.9437845758900825  0.3474780102508384
  0.3574912491063884  0.0401879022967503  0.6291226500170152
  0.1928893561846885  0.1918962716688666  0.1924923577616109
  0.1945843503384709  0.8028385078216110  0.8023836108467031
  0.6918962716688666  0.6928893561846884  0.6924923577616109
  0.3028385078216110  0.6945843503384710  0.3023836108467032
  0.2469068251779398  0.4985306894959920 -0.0000340380897887
  0.7458782760112702  0.4985162295686009  0.0008547588868335
 -0.0014837704313991  0.2458782760112699  0.5008547588868332
 -0.0014693105040081  0.7469068251779395  0.4999659619102114
  0.4902931192264663 -0.0032274737498544  0.2501450576908401
  0.4967725262501457 -0.0097068807735338  0.7501450576908401
  0.2472600050347559 -0.0057572274348333  0.4960705379605598
  0.7461240488123805 -0.0062705883964360  0.5043543478250159
  0.4937294116035640  0.2461240488123804  0.0043543478250156
  0.4942427725651666  0.7472600050347559 -0.0039294620394400
 -0.0001716885481805  0.4974399533575750  0.2503800099861991
 -0.0025600466424250  0.4998283114518194  0.7503800099861988
  0.0718603662141364 -0.0043507138698055 -0.0015774503308583
  0.4956492861301944  0.5718603662141368  0.4984225496691415
  0.8341827808248614  0.8352863880671796  0.1639332754725314
  0.8345252854536781  0.1630902282789393  0.8380771429122259
  0.3352863880671798  0.3341827808248615  0.6639332754725311
  0.6630902282789392  0.3345252854536780  0.3380771429122260
 
  0.00000000E+00  0.00000000E+00  0.00000000E+00
  0.00000000E+00  0.00000000E+00  0.00000000E+00
  0.00000000E+00  0.00000000E+00  0.00000000E+00
  0.00000000E+00  0.00000000E+00  0.00000000E+00
  0.00000000E+00  0.00000000E+00  0.00000000E+00
  0.00000000E+00  0.00000000E+00  0.00000000E+00
  0.00000000E+00  0.00000000E+00  0.00000000E+00
  0.00000000E+00  0.00000000E+00  0.00000000E+00
  0.00000000E+00  0.00000000E+00  0.00000000E+00
  0.00000000E+00  0.00000000E+00  0.00000000E+00
  0.00000000E+00  0.00000000E+00  0.00000000E+00
  0.00000000E+00  0.00000000E+00  0.00000000E+00
  0.00000000E+00  0.00000000E+00  0.00000000E+00
  0.00000000E+00  0.00000000E+00  0.00000000E+00
  0.00000000E+00  0.00000000E+00  0.00000000E+00
  0.00000000E+00  0.00000000E+00  0.00000000E+00
  0.00000000E+00  0.00000000E+00  0.00000000E+00
  0.00000000E+00  0.00000000E+00  0.00000000E+00
  0.00000000E+00  0.00000000E+00  0.00000000E+00
  0.00000000E+00  0.00000000E+00  0.00000000E+00
  0.00000000E+00  0.00000000E+00  0.00000000E+00
  0.00000000E+00  0.00000000E+00  0.00000000E+00
  0.00000000E+00  0.00000000E+00  0.00000000E+00
  0.00000000E+00  0.00000000E+00  0.00000000E+00
  0.00000000E+00  0.00000000E+00  0.00000000E+00
  0.00000000E+00  0.00000000E+00  0.00000000E+00
  0.00000000E+00  0.00000000E+00  0.00000000E+00
  0.00000000E+00  0.00000000E+00  0.00000000E+00
  0.00000000E+00  0.00000000E+00  0.00000000E+00
  0.00000000E+00  0.00000000E+00  0.00000000E+00
  0.00000000E+00  0.00000000E+00  0.00000000E+00
  0.00000000E+00  0.00000000E+00  0.00000000E+00
  0.00000000E+00  0.00000000E+00  0.00000000E+00
  0.00000000E+00  0.00000000E+00  0.00000000E+00
  0.00000000E+00  0.00000000E+00  0.00000000E+00
  0.00000000E+00  0.00000000E+00  0.00000000E+00
  0.00000000E+00  0.00000000E+00  0.00000000E+00
  0.00000000E+00  0.00000000E+00  0.00000000E+00
  0.00000000E+00  0.00000000E+00  0.00000000E+00
  0.00000000E+00  0.00000000E+00  0.00000000E+00
  0.00000000E+00  0.00000000E+00  0.00000000E+00
  0.00000000E+00  0.00000000E+00  0.00000000E+00
  0.00000000E+00  0.00000000E+00  0.00000000E+00
  0.00000000E+00  0.00000000E+00  0.00000000E+00
  0.00000000E+00  0.00000000E+00  0.00000000E+00
  0.00000000E+00  0.00000000E+00  0.00000000E+00
