Sodilite                                
   1.00000000000000     
     9.0475653701029426    0.0313693577350181    0.0000000000000000
     0.0313601484582862    9.0447413187388133    0.0000000000000000
     0.0000000000000000    0.0000000000000000    9.0533597925239047
   O    Na   Al   Si   Cl   K 
    24     6     6     6     2     2
Direct
  0.1416923753555890  0.4493150477421881  0.1536112813246392
  0.8583076246444106  0.5506849522578120  0.1536112813246392
  0.8602166671803676  0.4417718136544029  0.8523798279106012
  0.1397833328196323  0.5582281863455972  0.8523798279106012
  0.1383074215414536  0.1283296485376158  0.4552555211363240
  0.1634105068259048  0.8463441535985836  0.5615420840894005
  0.8616925784585462  0.8716703514623844  0.4552555211363240
  0.8365894931740956  0.1536558464014164  0.5615420840894005
  0.4495498733816838  0.1505767806327500  0.1426122846813747
  0.5585145399720655  0.1504496141465838  0.8610418247962005
  0.4414854600279347  0.8495503858534162  0.8610418247962005
  0.5504501266183163  0.8494232193672493  0.1426122846813747
  0.9396800744096235  0.6390187069347469  0.6530420746255660
  0.0603199255903763  0.3609812930652534  0.6530420746255660
  0.9456650303300285  0.3576517740533962  0.3522402660191154
  0.0543349696699715  0.6423482259466037  0.3522402660191154
  0.6409855863981804  0.6516868067670957  0.9438135765186634
  0.3594794521554888  0.6497950895684105  0.0587171479299885
  0.3590144136018196  0.3483131932329045  0.9438135765186634
  0.6405205478445112  0.3502049104315894  0.0587171479299885
  0.6488910446620104  0.9410457409984060  0.6419081293860255
  0.6525850700074176  0.0553402314948073  0.3608434161173498
  0.3474149299925823  0.9446597685051923  0.3608434161173498
  0.3511089553379895  0.0589542590015945  0.6419081293860255
  0.8058781126540487  0.1944244125885953  0.8100836454331209
  0.1941218873459515  0.8055755874114041  0.8100836454331209
  0.6819705120488063  0.6830537369015094  0.6836441226863691
  0.3180294879511933  0.3169462630984916  0.6836441226863691
  0.6809352808031079  0.3203824531947233  0.3228180183309025
  0.3190647191968917  0.6796175468052770  0.3228180183309025
  0.2503339896260863  0.5001606477796376  0.0022262110159071
  0.7496660103739130  0.4998393522203624  0.0022262110159071
 -0.0035568325401581  0.2500813498017492  0.5070834068289527
  0.0035568325401581  0.7499186501982510  0.5070834068289527
  0.5000000000000000 -0.0000000000000000  0.2540730955190134
  0.5000000000000000 -0.0000000000000000  0.7526342799919983
  0.2500103569499054 -0.0045567155095617  0.5060252604067628
  0.7499896430500947  0.0045567155095617  0.5060252604067628
  0.5012732655536045  0.2501337817576098  0.0018528787095999
  0.4987267344463957  0.7498662182423901  0.0018528787095999
  0.0000000000000000  0.5000000000000000  0.2539832230836673
  0.0000000000000000  0.5000000000000000  0.7530465244242740
  0.0000000000000000 -0.0000000000000000 -0.0819430300523316
  0.5000000000000000  0.5000000000000000  0.5054164495733684
  0.1568215179208863  0.1563299060383882  0.1606537507831408
  0.8431784820791136  0.8436700939616111  0.1606537507831408
 
  0.00000000E+00  0.00000000E+00  0.00000000E+00
  0.00000000E+00  0.00000000E+00  0.00000000E+00
  0.00000000E+00  0.00000000E+00  0.00000000E+00
  0.00000000E+00  0.00000000E+00  0.00000000E+00
  0.00000000E+00  0.00000000E+00  0.00000000E+00
  0.00000000E+00  0.00000000E+00  0.00000000E+00
  0.00000000E+00  0.00000000E+00  0.00000000E+00
  0.00000000E+00  0.00000000E+00  0.00000000E+00
  0.00000000E+00  0.00000000E+00  0.00000000E+00
  0.00000000E+00  0.00000000E+00  0.00000000E+00
  0.00000000E+00  0.00000000E+00  0.00000000E+00
  0.00000000E+00  0.00000000E+00  0.00000000E+00
  0.00000000E+00  0.00000000E+00  0.00000000E+00
  0.00000000E+00  0.00000000E+00  0.00000000E+00
  0.00000000E+00  0.00000000E+00  0.00000000E+00
  0.00000000E+00  0.00000000E+00  0.00000000E+00
  0.00000000E+00  0.00000000E+00  0.00000000E+00
  0.00000000E+00  0.00000000E+00  0.00000000E+00
  0.00000000E+00  0.00000000E+00  0.00000000E+00
  0.00000000E+00  0.00000000E+00  0.00000000E+00
  0.00000000E+00  0.00000000E+00  0.00000000E+00
  0.00000000E+00  0.00000000E+00  0.00000000E+00
  0.00000000E+00  0.00000000E+00  0.00000000E+00
  0.00000000E+00  0.00000000E+00  0.00000000E+00
  0.00000000E+00  0.00000000E+00  0.00000000E+00
  0.00000000E+00  0.00000000E+00  0.00000000E+00
  0.00000000E+00  0.00000000E+00  0.00000000E+00
  0.00000000E+00  0.00000000E+00  0.00000000E+00
  0.00000000E+00  0.00000000E+00  0.00000000E+00
  0.00000000E+00  0.00000000E+00  0.00000000E+00
  0.00000000E+00  0.00000000E+00  0.00000000E+00
  0.00000000E+00  0.00000000E+00  0.00000000E+00
  0.00000000E+00  0.00000000E+00  0.00000000E+00
  0.00000000E+00  0.00000000E+00  0.00000000E+00
  0.00000000E+00  0.00000000E+00  0.00000000E+00
  0.00000000E+00  0.00000000E+00  0.00000000E+00
  0.00000000E+00  0.00000000E+00  0.00000000E+00
  0.00000000E+00  0.00000000E+00  0.00000000E+00
  0.00000000E+00  0.00000000E+00  0.00000000E+00
  0.00000000E+00  0.00000000E+00  0.00000000E+00
  0.00000000E+00  0.00000000E+00  0.00000000E+00
  0.00000000E+00  0.00000000E+00  0.00000000E+00
  0.00000000E+00  0.00000000E+00  0.00000000E+00
  0.00000000E+00  0.00000000E+00  0.00000000E+00
  0.00000000E+00  0.00000000E+00  0.00000000E+00
  0.00000000E+00  0.00000000E+00  0.00000000E+00
