Sodilite                                
   1.00000000000000     
     8.9797423361744180    0.0156432170019860    0.0156432175425168
     0.0156432175425168    8.9797423361744180    0.0156432170019860
     0.0156432170019860    0.0156432175425169    8.9797423361744180
   O    Na   Al   Si   Cl   K 
    24     7     6     6     2     1
Direct
  0.1389084473465387  0.4366235471433028  0.1500547609870565
  0.8613695592711706  0.5637307428814491  0.1519966695831399
  0.8611807482248487  0.4403936564831414  0.8509745087651505
  0.1416964136507039  0.5625595917144626  0.8525138508795710
  0.1500547609870565  0.1389084473465387  0.4366235471433028
  0.1519966695831399  0.8613695592711706  0.5637307428814491
  0.8509745087651505  0.8611807482248487  0.4403936564831414
  0.8525138508795710  0.1416964136507039  0.5625595917144626
  0.4366235471433028  0.1500547609870565  0.1389084473465387
  0.5637307428814491  0.1519966695831399  0.8613695592711706
  0.4403936564831414  0.8509745087651505  0.8611807482248487
  0.5625595917144626  0.8525138508795710  0.1416964136507039
  0.9472641977244718  0.6356983383998330  0.6459766088246089
  0.0650452906576417  0.3556277325346610  0.6561941844802071
  0.9393945579949600  0.3668920322221118  0.3570065636377674
  0.0644481063509134  0.6452852148106117  0.3465543801634711
  0.6356983383998330  0.6459766088246089  0.9472641977244718
  0.3556277325346610  0.6561941844802071  0.0650452906576417
  0.3668920322221118  0.3570065636377674  0.9393945579949600
  0.6452852148106117  0.3465543801634711  0.0644481063509134
  0.6459766088246089  0.9472641977244718  0.6356983383998330
  0.6561941844802071  0.0650452906576417  0.3556277325346610
  0.3570065636377674  0.9393945579949600  0.3668920322221118
  0.3465543801634711  0.0644481063509134  0.6452852148106117
  0.1807661854764243  0.1807661854764243  0.1807661854764243
  0.8224889735809596  0.8236298930760682  0.1792255979118570
  0.8236298930760682  0.1792255979118570  0.8224889735809596
  0.1792255979118570  0.8224889735809596  0.8236298930760682
  0.3176507601309551  0.3171056344533288  0.6852506513718984
  0.6852506513718984  0.3176507601309551  0.3171056344533288
  0.3171056344533288  0.6852506513718984  0.3176507601309551
  0.2515379078405923  0.5025802761973369  0.0033265948308109
  0.7519288800971559  0.4997157216492764  0.0034590036540590
  0.0033265948308109  0.2515379078405923  0.5025802761973369
  0.0034590036540590  0.7519288800971559  0.4997157216492764
  0.5025802761973369  0.0033265948308109  0.2515379078405923
  0.4997157216492764  0.0034590036540590  0.7519288800971559
  0.2516662622906622  0.0019650950922514  0.5028998104795004
  0.7518789489106378  0.0039108664006115  0.4990556603351793
  0.5028998104795004  0.2516662622906622  0.0019650950922514
  0.4990556603351792  0.7518789489106378  0.0039108664006115
  0.0019650950922514  0.5028998104795004  0.2516662622906622
  0.0039108664006115  0.4990556603351792  0.7518789489106378
  0.0020179339059557  0.0020179339059557  0.0020179339059557
  0.4598600638333559  0.4598600638333559  0.4598600638333559
  0.6506895737493290  0.6506895737493290  0.6506895737493290
 
  0.00000000E+00  0.00000000E+00  0.00000000E+00
  0.00000000E+00  0.00000000E+00  0.00000000E+00
  0.00000000E+00  0.00000000E+00  0.00000000E+00
  0.00000000E+00  0.00000000E+00  0.00000000E+00
  0.00000000E+00  0.00000000E+00  0.00000000E+00
  0.00000000E+00  0.00000000E+00  0.00000000E+00
  0.00000000E+00  0.00000000E+00  0.00000000E+00
  0.00000000E+00  0.00000000E+00  0.00000000E+00
  0.00000000E+00  0.00000000E+00  0.00000000E+00
  0.00000000E+00  0.00000000E+00  0.00000000E+00
  0.00000000E+00  0.00000000E+00  0.00000000E+00
  0.00000000E+00  0.00000000E+00  0.00000000E+00
  0.00000000E+00  0.00000000E+00  0.00000000E+00
  0.00000000E+00  0.00000000E+00  0.00000000E+00
  0.00000000E+00  0.00000000E+00  0.00000000E+00
  0.00000000E+00  0.00000000E+00  0.00000000E+00
  0.00000000E+00  0.00000000E+00  0.00000000E+00
  0.00000000E+00  0.00000000E+00  0.00000000E+00
  0.00000000E+00  0.00000000E+00  0.00000000E+00
  0.00000000E+00  0.00000000E+00  0.00000000E+00
  0.00000000E+00  0.00000000E+00  0.00000000E+00
  0.00000000E+00  0.00000000E+00  0.00000000E+00
  0.00000000E+00  0.00000000E+00  0.00000000E+00
  0.00000000E+00  0.00000000E+00  0.00000000E+00
  0.00000000E+00  0.00000000E+00  0.00000000E+00
  0.00000000E+00  0.00000000E+00  0.00000000E+00
  0.00000000E+00  0.00000000E+00  0.00000000E+00
  0.00000000E+00  0.00000000E+00  0.00000000E+00
  0.00000000E+00  0.00000000E+00  0.00000000E+00
  0.00000000E+00  0.00000000E+00  0.00000000E+00
  0.00000000E+00  0.00000000E+00  0.00000000E+00
  0.00000000E+00  0.00000000E+00  0.00000000E+00
  0.00000000E+00  0.00000000E+00  0.00000000E+00
  0.00000000E+00  0.00000000E+00  0.00000000E+00
  0.00000000E+00  0.00000000E+00  0.00000000E+00
  0.00000000E+00  0.00000000E+00  0.00000000E+00
  0.00000000E+00  0.00000000E+00  0.00000000E+00
  0.00000000E+00  0.00000000E+00  0.00000000E+00
  0.00000000E+00  0.00000000E+00  0.00000000E+00
  0.00000000E+00  0.00000000E+00  0.00000000E+00
  0.00000000E+00  0.00000000E+00  0.00000000E+00
  0.00000000E+00  0.00000000E+00  0.00000000E+00
  0.00000000E+00  0.00000000E+00  0.00000000E+00
  0.00000000E+00  0.00000000E+00  0.00000000E+00
  0.00000000E+00  0.00000000E+00  0.00000000E+00
  0.00000000E+00  0.00000000E+00  0.00000000E+00
