Sodilite                                
   1.00000000000000     
     9.1593683576613447    0.0063647415340915    0.0238877546475403
     0.0063647415340915    9.1593683576613447   -0.0238877546475403
     0.0238718118696526   -0.0238718118696526    9.1496000933225972
   O    Na   Al   Si   Cl   K 
    24     4     6     6     2     4
Direct
  0.1423940784299101  0.4500601830429649  0.1543507483783857
  0.8572898379745828  0.5412476826139259  0.1486872039057349
  0.8542735979385211  0.4603120163271471  0.8449837945050578
  0.1392120725390442  0.5517636266110669  0.8500904143033302
  0.1479228577235465  0.1432272436413671  0.4475823054692905
  0.1514943974569643  0.8602081701629526  0.5477512433750229
  0.8437055417425469  0.8597776301063077  0.4603029078147107
  0.8470073235513025  0.1452481392238001  0.5429636528670956
  0.4438123809287645  0.1663038952996952  0.1525071953987062
  0.5402034817830453  0.1425338904557522  0.8708355190291589
  0.4494022348073153  0.8401533048172917  0.8447382855744420
  0.5336800283495423  0.8620503657824808  0.1322864471621752
  0.9587523173860741  0.6427101620254172  0.6486872039057351
  0.0499398169570352  0.3576059215700899  0.6543507483783858
  0.9482363733889331  0.3607879274609558  0.3500904143033299
  0.0396879836728529  0.6457264020614789  0.3449837945050578
  0.6402223698936923  0.6562944582574531  0.9603029078147105
  0.3547518607762000  0.6529926764486975  0.0429636528670950
  0.3567727563586326  0.3520771422764533  0.9475823054692905
  0.6397918298370474  0.3485056025430357  0.0477512433750229
  0.6379496342175192  0.9663199716504577  0.6322864471621749
  0.6598466951827083  0.0505977651926845  0.3447382855744423
  0.3574661095442477  0.9597965182169547  0.3708355190291590
  0.3336961047003048  0.0561876190712357  0.6525071953987066
  0.1945965366259570  0.1971903340560193  0.1976499991001270
  0.1929593747477092  0.8081851827625347  0.8075284270553742
  0.3028096659439809  0.3054034633740429  0.6976499991001275
  0.6918148172374653  0.3070406252522910  0.3075284270553744
  0.2468978911587415  0.5014691326533492 -0.0000246462140499
  0.7459005558261427  0.5014994157407835 -0.0008279062699081
 -0.0014691326533493  0.2531021088412587  0.4999753537859495
 -0.0014994157407836  0.7540994441738573  0.4991720937300920
  0.4968062531442752  0.0097001952663436  0.2498438225551266
  0.4902998047336565  0.0031937468557249  0.7498438225551265
  0.2472920749305567  0.0057178633799783  0.5038924847430016
  0.7461396787593961  0.0062232884992821  0.4957180512834898
  0.4942821366200216  0.2527079250694433  0.0038924847430016
  0.4937767115007179  0.7538603212406039 -0.0042819487165102
 -0.0026085381392857  0.5001801074554538  0.2495975930728719
 -0.0001801074554538  0.5026085381392861  0.7495975930728718
  0.0719481153871320  0.0044679053934275  0.0015541741397290
  0.4955320946065725  0.4280518846128680  0.5015541741397287
  0.8347203265651881  0.8370609379193785  0.1619226483259534
  0.8342431783122124  0.1647127693318054  0.8360656344251745
  0.6629390620806215  0.6652796734348119  0.6619226483259530
  0.3352872306681945  0.6657568216877876  0.3360656344251748
 
  0.00000000E+00  0.00000000E+00  0.00000000E+00
  0.00000000E+00  0.00000000E+00  0.00000000E+00
  0.00000000E+00  0.00000000E+00  0.00000000E+00
  0.00000000E+00  0.00000000E+00  0.00000000E+00
  0.00000000E+00  0.00000000E+00  0.00000000E+00
  0.00000000E+00  0.00000000E+00  0.00000000E+00
  0.00000000E+00  0.00000000E+00  0.00000000E+00
  0.00000000E+00  0.00000000E+00  0.00000000E+00
  0.00000000E+00  0.00000000E+00  0.00000000E+00
  0.00000000E+00  0.00000000E+00  0.00000000E+00
  0.00000000E+00  0.00000000E+00  0.00000000E+00
  0.00000000E+00  0.00000000E+00  0.00000000E+00
  0.00000000E+00  0.00000000E+00  0.00000000E+00
  0.00000000E+00  0.00000000E+00  0.00000000E+00
  0.00000000E+00  0.00000000E+00  0.00000000E+00
  0.00000000E+00  0.00000000E+00  0.00000000E+00
  0.00000000E+00  0.00000000E+00  0.00000000E+00
  0.00000000E+00  0.00000000E+00  0.00000000E+00
  0.00000000E+00  0.00000000E+00  0.00000000E+00
  0.00000000E+00  0.00000000E+00  0.00000000E+00
  0.00000000E+00  0.00000000E+00  0.00000000E+00
  0.00000000E+00  0.00000000E+00  0.00000000E+00
  0.00000000E+00  0.00000000E+00  0.00000000E+00
  0.00000000E+00  0.00000000E+00  0.00000000E+00
  0.00000000E+00  0.00000000E+00  0.00000000E+00
  0.00000000E+00  0.00000000E+00  0.00000000E+00
  0.00000000E+00  0.00000000E+00  0.00000000E+00
  0.00000000E+00  0.00000000E+00  0.00000000E+00
  0.00000000E+00  0.00000000E+00  0.00000000E+00
  0.00000000E+00  0.00000000E+00  0.00000000E+00
  0.00000000E+00  0.00000000E+00  0.00000000E+00
  0.00000000E+00  0.00000000E+00  0.00000000E+00
  0.00000000E+00  0.00000000E+00  0.00000000E+00
  0.00000000E+00  0.00000000E+00  0.00000000E+00
  0.00000000E+00  0.00000000E+00  0.00000000E+00
  0.00000000E+00  0.00000000E+00  0.00000000E+00
  0.00000000E+00  0.00000000E+00  0.00000000E+00
  0.00000000E+00  0.00000000E+00  0.00000000E+00
  0.00000000E+00  0.00000000E+00  0.00000000E+00
  0.00000000E+00  0.00000000E+00  0.00000000E+00
  0.00000000E+00  0.00000000E+00  0.00000000E+00
  0.00000000E+00  0.00000000E+00  0.00000000E+00
  0.00000000E+00  0.00000000E+00  0.00000000E+00
  0.00000000E+00  0.00000000E+00  0.00000000E+00
  0.00000000E+00  0.00000000E+00  0.00000000E+00
  0.00000000E+00  0.00000000E+00  0.00000000E+00
