Sodilite                                
   1.00000000000000     
     9.1735367051558914   -0.0031883793401036    0.0031883809745708
    -0.0031883809745708    9.1735367051558914   -0.0031883793401036
     0.0031883793401036   -0.0031883809745708    9.1735367051558914
   O    Na   Al   Si   Cl   K 
    24     4     6     6     2     4
Direct
  0.1501717056944896  0.4600349213178869  0.1603593381265007
  0.8635721108658071  0.5374230362529845  0.1441068471538076
  0.8503532086412020  0.4484388231195794  0.8404480150680972
  0.1339119973818394  0.5389588506326147  0.8557159818135879
  0.1441068471538076  0.1364278891341933  0.4625769637470152
  0.1603593381265007  0.8498282943055099  0.5399650786821135
  0.8557159818135879  0.8660880026181607  0.4610411493673857
  0.8404480150680972  0.1496467913587980  0.5515611768804201
  0.4610411493673857  0.1442840181864120  0.1339119973818394
  0.5515611768804201  0.1595519849319028  0.8503532086412020
  0.4625769637470152  0.8558931528461919  0.8635721108658071
  0.5399650786821135  0.8396406618734992  0.1501717056944896
  0.9514568361516775  0.6475260413947869  0.6597438043135017
  0.0500927209167172  0.3649816056401288  0.6453979823775498
  0.9517147416356497  0.3502255255654340  0.3431573391966444
  0.0344732575708341  0.6373945611255369  0.3534550101545691
  0.6497744744345656  0.6568426608033556  0.9517147416356497
  0.3626054388744630  0.6465449898454310  0.0344732575708341
  0.3524739586052134  0.3402561956864986  0.9514568361516775
  0.6350183943598714  0.3546020176224501  0.0500927209167172
  0.6453979823775498  0.9499072790832828  0.6350183943598714
  0.6597438043135017  0.0485431638483222  0.3524739586052134
  0.3534550101545691  0.9655267424291661  0.3626054388744630
  0.3431573391966444  0.0482852583643503  0.6497744744345656
  0.7913090961341485  0.2086909038658526  0.7913090961341485
  0.6923836103966232  0.6899080012310477  0.6931075344436332
  0.3100919987689526  0.3068924655563666  0.6923836103966232
  0.6931075344436332  0.3076163896033768  0.3100919987689526
  0.2503277159714065  0.4958075203509220  0.0003592213705215
  0.7495214559203422  0.4983654518206774 -0.0035939371202153
 -0.0035939371202153  0.2504785440796576  0.5016345481793224
  0.0003592213705215  0.7496722840285939  0.5041924796490779
  0.5041924796490779 -0.0003592213705215  0.2503277159714065
  0.5016345481793224  0.0035939371202153  0.7495214559203422
  0.2505137359046905  0.0001628280258327  0.5039340783868593
  0.7502268309305300  0.0035510654757970  0.5007477586376126
  0.5007477586376126  0.2497731690694703 -0.0035510654757970
  0.5039340783868593  0.7494862640953097 -0.0001628280258327
 -0.0001628280258327  0.4960659216131403  0.2505137359046905
 -0.0035510654757970  0.4992522413623871  0.7502268309305300
 -0.0421645908861608  0.0421645908861608 -0.0421645908861608
  0.5341325009961365  0.4658674990038635  0.5341325009961365
  0.1697521688335655  0.1668756113778921  0.1705776816954712
  0.8331243886221080  0.8294223183045285  0.1697521688335655
  0.1705776816954712  0.8302478311664347  0.8331243886221080
  0.3403880846534827  0.6596119153465171  0.3403880846534827
 
  0.00000000E+00  0.00000000E+00  0.00000000E+00
  0.00000000E+00  0.00000000E+00  0.00000000E+00
  0.00000000E+00  0.00000000E+00  0.00000000E+00
  0.00000000E+00  0.00000000E+00  0.00000000E+00
  0.00000000E+00  0.00000000E+00  0.00000000E+00
  0.00000000E+00  0.00000000E+00  0.00000000E+00
  0.00000000E+00  0.00000000E+00  0.00000000E+00
  0.00000000E+00  0.00000000E+00  0.00000000E+00
  0.00000000E+00  0.00000000E+00  0.00000000E+00
  0.00000000E+00  0.00000000E+00  0.00000000E+00
  0.00000000E+00  0.00000000E+00  0.00000000E+00
  0.00000000E+00  0.00000000E+00  0.00000000E+00
  0.00000000E+00  0.00000000E+00  0.00000000E+00
  0.00000000E+00  0.00000000E+00  0.00000000E+00
  0.00000000E+00  0.00000000E+00  0.00000000E+00
  0.00000000E+00  0.00000000E+00  0.00000000E+00
  0.00000000E+00  0.00000000E+00  0.00000000E+00
  0.00000000E+00  0.00000000E+00  0.00000000E+00
  0.00000000E+00  0.00000000E+00  0.00000000E+00
  0.00000000E+00  0.00000000E+00  0.00000000E+00
  0.00000000E+00  0.00000000E+00  0.00000000E+00
  0.00000000E+00  0.00000000E+00  0.00000000E+00
  0.00000000E+00  0.00000000E+00  0.00000000E+00
  0.00000000E+00  0.00000000E+00  0.00000000E+00
  0.00000000E+00  0.00000000E+00  0.00000000E+00
  0.00000000E+00  0.00000000E+00  0.00000000E+00
  0.00000000E+00  0.00000000E+00  0.00000000E+00
  0.00000000E+00  0.00000000E+00  0.00000000E+00
  0.00000000E+00  0.00000000E+00  0.00000000E+00
  0.00000000E+00  0.00000000E+00  0.00000000E+00
  0.00000000E+00  0.00000000E+00  0.00000000E+00
  0.00000000E+00  0.00000000E+00  0.00000000E+00
  0.00000000E+00  0.00000000E+00  0.00000000E+00
  0.00000000E+00  0.00000000E+00  0.00000000E+00
  0.00000000E+00  0.00000000E+00  0.00000000E+00
  0.00000000E+00  0.00000000E+00  0.00000000E+00
  0.00000000E+00  0.00000000E+00  0.00000000E+00
  0.00000000E+00  0.00000000E+00  0.00000000E+00
  0.00000000E+00  0.00000000E+00  0.00000000E+00
  0.00000000E+00  0.00000000E+00  0.00000000E+00
  0.00000000E+00  0.00000000E+00  0.00000000E+00
  0.00000000E+00  0.00000000E+00  0.00000000E+00
  0.00000000E+00  0.00000000E+00  0.00000000E+00
  0.00000000E+00  0.00000000E+00  0.00000000E+00
  0.00000000E+00  0.00000000E+00  0.00000000E+00
  0.00000000E+00  0.00000000E+00  0.00000000E+00
