Sodilite                                
   1.00000000000000     
     9.1511812572317979   -0.0257537576005637    0.0257537576005636
    -0.0257568101052142    9.1590048943771816    0.0042428333524218
     0.0257568101052142    0.0042428333524218    9.1590048943771816
   O    Na   Al   Si   Cl   K 
    24     4     6     6     2     4
Direct
  0.1428341448543666  0.4507777554250185  0.1520184825662341
  0.8593035832550697  0.5514809194246837  0.1474161861217196
  0.8553086698900731  0.4596808533918900  0.8431933341357034
  0.1414945317437550  0.5419325384386676  0.8474602541915899
  0.1616377512213987  0.1562573911501593  0.4453575542461955
  0.1425863058852568  0.8713587672743583  0.5352139223426061
  0.8351158487298058  0.8486475632853783  0.4480172598006685
  0.8609265969210365  0.1319463191588034  0.5388431175484532
  0.4456500999558845  0.1544570306296836  0.1393461493272317
  0.5441425235760787  0.1542185660156058  0.8574969306224687
  0.4621082358203177  0.8513600473654243  0.8542864248774731
  0.5469403477217045  0.8509156596838524  0.1422136589482301
  0.9621082358203168  0.6457135751225269  0.6486399526345757
  0.0469403477217041  0.3577863410517701  0.6490843403161476
  0.9456500999558846  0.3606538506727684  0.3455429693703164
  0.0441425235760782  0.6425030693775313  0.3457814339843943
  0.6414945317437551  0.6525397458084101  0.9580674615613324
  0.3553086698900734  0.6568066658642966  0.0403191466081099
  0.3593035832550692  0.3525838138782804  0.9485190805753163
  0.6428341448543664  0.3479815174337659  0.0492222445749814
  0.6425863058852566  0.9647860776573939  0.6286412327256417
  0.6616377512213986  0.0546424457538045  0.3437426088498406
  0.3609265969210363  0.9611568824515468  0.3680536808411966
  0.3351158487298057  0.0519827401993316  0.6513524367146217
  0.1963103134578418  0.1977195897622983  0.1957376943204426
  0.8063170402933318  0.8083540312396433  0.1917010388818517
  0.3063170402933320  0.3082989611181484  0.6916459687603567
  0.6963103134578417  0.3042623056795574  0.3022804102377017
  0.2497572631316793  0.5016229638190769 -0.0014874391570734
  0.7497572631316797  0.5014874391570741 -0.0016229638190771
  0.0026038340418962  0.2528363503160351  0.4936087000211197
 -0.0032879947482037  0.7542759641274421  0.4934188500417258
  0.5026038340418966  0.0063912999788801  0.2471636496839651
  0.4967120052517964  0.0065811499582740  0.7457240358725579
  0.2498690879533961  0.0102723669103720  0.4985258827522093
  0.7498690879533958  0.0014741172477905  0.4897276330896279
  0.4985109497772092  0.2528246517349187 -0.0014639793054360
  0.5008092672091505  0.7537764344489813 -0.0014817075747655
 -0.0014890502227907  0.5014639793054361  0.2471753482650816
  0.0008092672091505  0.5014817075747653  0.7462235655510187
  0.0011299465706202  0.0048068838799675  0.0724060628570089
  0.5011299465706200  0.4275939371429912  0.4951931161200328
  0.8365677696051395  0.1640156863413851  0.8333870032227532
  0.1633638831331929  0.8378177277693044  0.8361406808045392
  0.6633638831331932  0.6638593191954608  0.6621822722306956
  0.3365677696051395  0.6666129967772468  0.3359843136586151
 
  0.00000000E+00  0.00000000E+00  0.00000000E+00
  0.00000000E+00  0.00000000E+00  0.00000000E+00
  0.00000000E+00  0.00000000E+00  0.00000000E+00
  0.00000000E+00  0.00000000E+00  0.00000000E+00
  0.00000000E+00  0.00000000E+00  0.00000000E+00
  0.00000000E+00  0.00000000E+00  0.00000000E+00
  0.00000000E+00  0.00000000E+00  0.00000000E+00
  0.00000000E+00  0.00000000E+00  0.00000000E+00
  0.00000000E+00  0.00000000E+00  0.00000000E+00
  0.00000000E+00  0.00000000E+00  0.00000000E+00
  0.00000000E+00  0.00000000E+00  0.00000000E+00
  0.00000000E+00  0.00000000E+00  0.00000000E+00
  0.00000000E+00  0.00000000E+00  0.00000000E+00
  0.00000000E+00  0.00000000E+00  0.00000000E+00
  0.00000000E+00  0.00000000E+00  0.00000000E+00
  0.00000000E+00  0.00000000E+00  0.00000000E+00
  0.00000000E+00  0.00000000E+00  0.00000000E+00
  0.00000000E+00  0.00000000E+00  0.00000000E+00
  0.00000000E+00  0.00000000E+00  0.00000000E+00
  0.00000000E+00  0.00000000E+00  0.00000000E+00
  0.00000000E+00  0.00000000E+00  0.00000000E+00
  0.00000000E+00  0.00000000E+00  0.00000000E+00
  0.00000000E+00  0.00000000E+00  0.00000000E+00
  0.00000000E+00  0.00000000E+00  0.00000000E+00
  0.00000000E+00  0.00000000E+00  0.00000000E+00
  0.00000000E+00  0.00000000E+00  0.00000000E+00
  0.00000000E+00  0.00000000E+00  0.00000000E+00
  0.00000000E+00  0.00000000E+00  0.00000000E+00
  0.00000000E+00  0.00000000E+00  0.00000000E+00
  0.00000000E+00  0.00000000E+00  0.00000000E+00
  0.00000000E+00  0.00000000E+00  0.00000000E+00
  0.00000000E+00  0.00000000E+00  0.00000000E+00
  0.00000000E+00  0.00000000E+00  0.00000000E+00
  0.00000000E+00  0.00000000E+00  0.00000000E+00
  0.00000000E+00  0.00000000E+00  0.00000000E+00
  0.00000000E+00  0.00000000E+00  0.00000000E+00
  0.00000000E+00  0.00000000E+00  0.00000000E+00
  0.00000000E+00  0.00000000E+00  0.00000000E+00
  0.00000000E+00  0.00000000E+00  0.00000000E+00
  0.00000000E+00  0.00000000E+00  0.00000000E+00
  0.00000000E+00  0.00000000E+00  0.00000000E+00
  0.00000000E+00  0.00000000E+00  0.00000000E+00
  0.00000000E+00  0.00000000E+00  0.00000000E+00
  0.00000000E+00  0.00000000E+00  0.00000000E+00
  0.00000000E+00  0.00000000E+00  0.00000000E+00
  0.00000000E+00  0.00000000E+00  0.00000000E+00
