Sodilite                                
   1.00000000000000     
     9.0478188965987449   -0.0317652569570505    0.0000000000000000
    -0.0317553867550715    9.0453737056182462    0.0000000000000000
     0.0000000000000000    0.0000000000000000    9.0534881445830990
   O    Na   Al   Si   Cl   K 
    24     6     6     6     2     2
Direct
  0.1397904538808449  0.4417432904251017  0.1476105660560031
  0.8602095461191548  0.5582567095748981  0.1476105660560031
  0.8583736117551085  0.4493351062822127  0.8464517623219577
  0.1416263882448916  0.5506648937177867  0.8464517623219577
  0.1634129267719019  0.1537187940114541  0.4385373399256561
  0.1381994129239046  0.8718545496248729  0.5447279890999344
  0.8365870732280988  0.8462812059885455  0.4385373399256561
  0.8618005870760956  0.1281454503751271  0.5447279890999344
  0.4415129043816460  0.1503677673543303  0.1390025054525098
  0.5505449310274612  0.1505080719863246  0.8574948682174149
  0.4494550689725395  0.8494919280136749  0.8574948682174149
  0.5584870956183539  0.8496322326456697  0.1390025054525098
  0.9456860609742929  0.6422701749986411  0.6476132670420685
  0.0543139390257070  0.3577298250013587  0.6476132670420685
  0.9396299487460824  0.3609970869936583  0.3469256203702427
  0.0603700512539175  0.6390029130063420  0.3469256203702427
  0.6406765001683049  0.6499239548818478  0.9412989133694480
  0.3592056769701701  0.6515585808239575  0.0561157131118523
  0.3593234998316956  0.3500760451181518  0.9412989133694480
  0.6407943230298294  0.3484414191760430  0.0561157131118523
  0.6525732947681256  0.9446891748591619  0.6391473439388794
  0.6488458800097368  0.0589886434076895  0.3581337406494632
  0.3511541199902636  0.9410113565923108  0.3581337406494632
  0.3474267052318747  0.0553108251408379  0.6391473439388794
  0.1940806712679597  0.1943327652675748  0.1899801638825548
  0.8059193287320403  0.8056672347324252  0.1899801638825548
  0.6809459730005792  0.6796821261722076  0.6769835736032824
  0.3190540269994206  0.3203178738277918  0.6769835736032824
  0.6820461788950929  0.3169296381793334  0.3161644184978518
  0.3179538211049070  0.6830703618206672  0.3161644184978518
  0.2503341522433833  0.4998342082713170 -0.0022340644044231
  0.7496658477566168  0.5001657917286831 -0.0022340644044231
  0.0034672815816076  0.2500598734020539  0.4928556366844756
 -0.0034672815816076  0.7499401265979456  0.4928556366844756
  0.5000000000000000 -0.0000000000000000  0.2474160752145423
  0.5000000000000000 -0.0000000000000000  0.7459543240906279
  0.2500078921994815  0.0046058380788597  0.4939549840369177
  0.7499921078005183 -0.0046058380788597  0.4939549840369177
  0.4986119607602751  0.2500736465919685 -0.0018457627127985
  0.5013880392397251  0.7499263534080315 -0.0018457627127985
  0.0000000000000000  0.5000000000000000  0.2469239635800080
  0.0000000000000000  0.5000000000000000  0.7459525881934042
  0.0000000000000000 -0.0000000000000000  0.0824117142555562
  0.5000000000000000  0.5000000000000000  0.4945752333271101
  0.8432421807113536  0.1562889659096002  0.8394644715260839
  0.1567578192886467  0.8437110340904002  0.8394644715260839
 
  0.00000000E+00  0.00000000E+00  0.00000000E+00
  0.00000000E+00  0.00000000E+00  0.00000000E+00
  0.00000000E+00  0.00000000E+00  0.00000000E+00
  0.00000000E+00  0.00000000E+00  0.00000000E+00
  0.00000000E+00  0.00000000E+00  0.00000000E+00
  0.00000000E+00  0.00000000E+00  0.00000000E+00
  0.00000000E+00  0.00000000E+00  0.00000000E+00
  0.00000000E+00  0.00000000E+00  0.00000000E+00
  0.00000000E+00  0.00000000E+00  0.00000000E+00
  0.00000000E+00  0.00000000E+00  0.00000000E+00
  0.00000000E+00  0.00000000E+00  0.00000000E+00
  0.00000000E+00  0.00000000E+00  0.00000000E+00
  0.00000000E+00  0.00000000E+00  0.00000000E+00
  0.00000000E+00  0.00000000E+00  0.00000000E+00
  0.00000000E+00  0.00000000E+00  0.00000000E+00
  0.00000000E+00  0.00000000E+00  0.00000000E+00
  0.00000000E+00  0.00000000E+00  0.00000000E+00
  0.00000000E+00  0.00000000E+00  0.00000000E+00
  0.00000000E+00  0.00000000E+00  0.00000000E+00
  0.00000000E+00  0.00000000E+00  0.00000000E+00
  0.00000000E+00  0.00000000E+00  0.00000000E+00
  0.00000000E+00  0.00000000E+00  0.00000000E+00
  0.00000000E+00  0.00000000E+00  0.00000000E+00
  0.00000000E+00  0.00000000E+00  0.00000000E+00
  0.00000000E+00  0.00000000E+00  0.00000000E+00
  0.00000000E+00  0.00000000E+00  0.00000000E+00
  0.00000000E+00  0.00000000E+00  0.00000000E+00
  0.00000000E+00  0.00000000E+00  0.00000000E+00
  0.00000000E+00  0.00000000E+00  0.00000000E+00
  0.00000000E+00  0.00000000E+00  0.00000000E+00
  0.00000000E+00  0.00000000E+00  0.00000000E+00
  0.00000000E+00  0.00000000E+00  0.00000000E+00
  0.00000000E+00  0.00000000E+00  0.00000000E+00
  0.00000000E+00  0.00000000E+00  0.00000000E+00
  0.00000000E+00  0.00000000E+00  0.00000000E+00
  0.00000000E+00  0.00000000E+00  0.00000000E+00
  0.00000000E+00  0.00000000E+00  0.00000000E+00
  0.00000000E+00  0.00000000E+00  0.00000000E+00
  0.00000000E+00  0.00000000E+00  0.00000000E+00
  0.00000000E+00  0.00000000E+00  0.00000000E+00
  0.00000000E+00  0.00000000E+00  0.00000000E+00
  0.00000000E+00  0.00000000E+00  0.00000000E+00
  0.00000000E+00  0.00000000E+00  0.00000000E+00
  0.00000000E+00  0.00000000E+00  0.00000000E+00
  0.00000000E+00  0.00000000E+00  0.00000000E+00
  0.00000000E+00  0.00000000E+00  0.00000000E+00
