Sodilite                                
   1.00000000000000     
     9.1713909322810263   -0.0026001815109549   -0.0026001776112185
    -0.0026001776112184    9.1713909322810263    0.0026001815109549
    -0.0026001815109550    0.0026001776112185    9.1713909322810263
   O    Na   Al   Si   Cl   K 
    24     4     6     6     2     4
Direct
  0.1364536905013153  0.4624667065517815  0.1441198498965298
  0.8498347315785728  0.5400841690832545  0.1603303643578800
  0.8661163132573073  0.4608310182576247  0.8557815533058309
  0.1496859516823939  0.5515109654493895  0.8404508173548532
  0.1442184466941692  0.1338836867426924  0.4608310182576247
  0.1595491826451471  0.8503140483176064  0.5515109654493895
  0.8558801501034703  0.8635463094986846  0.4624667065517815
  0.8396696356421205  0.1501652684214274  0.5400841690832545
  0.4599158309167452  0.1603303643578800  0.1501652684214274
  0.5375332934482187  0.1441198498965298  0.8635463094986846
  0.4484890345506108  0.8404508173548532  0.8503140483176064
  0.5391689817423748  0.8557815533058309  0.1338836867426924
  0.9497980842588569  0.6351279643959368  0.6455492382404916
  0.0486224889665618  0.3525449755528089  0.6595633183057769
  0.9652984756611652  0.3624549239894334  0.3533406674475572
  0.0482964979290757  0.6496152538919608  0.3432870826103951
  0.6474550244471909  0.6595633183057769  0.9513775110334378
  0.3648720356040631  0.6455492382404916  0.0502019157411428
  0.3503847461080388  0.3432870826103951  0.9517035020709244
  0.6375450760105663  0.3533406674475572  0.0347015243388348
  0.6567129173896051  0.9517035020709244  0.6496152538919608
  0.6466593325524428  0.0347015243388348  0.3624549239894334
  0.3404366816942228  0.9513775110334378  0.3525449755528089
  0.3544507617595085  0.0502019157411428  0.6351279643959368
  0.2089611173083499  0.7910388826916505  0.7910388826916505
  0.6895731759792360  0.6931806491463145  0.6924335192384569
  0.3075664807615429  0.3104268240207637  0.6931806491463145
  0.3068193508536849  0.6924335192384569  0.3104268240207637
  0.2505077182240103  0.5017241169715224 -0.0035184282594706
  0.7497101484357133  0.5040946111737363  0.0003942565031579
 -0.0003942565031579  0.2502898515642867  0.5040946111737363
  0.0035184282594706  0.7494922817759904  0.5017241169715224
  0.4959053888262639  0.0003942565031579  0.2502898515642867
  0.4982758830284778 -0.0035184282594706  0.7494922817759904
  0.2497676830537807 -0.0035160061730759  0.5007500318471265
  0.7494731517860000 -0.0000889301473660  0.5038254332506173
  0.4961745667493828  0.2505268482139996 -0.0000889301473660
  0.4992499681528736  0.7502323169462197 -0.0035160061730759
  0.0000889301473660  0.5038254332506173  0.2505268482139996
  0.0035160061730759  0.5007500318471265  0.7502323169462197
  0.0424883336314741 -0.0424883336314741 -0.0424883336314741
  0.4655627142796366  0.5344372857203633  0.5344372857203633
  0.1667530184182363  0.1703994819381484  0.1695066628881192
  0.8304933371118803  0.8332469815817635  0.1703994819381484
  0.8296005180618513  0.1695066628881192  0.8332469815817635
  0.6593409721171045  0.3406590278828954  0.3406590278828954
 
  0.00000000E+00  0.00000000E+00  0.00000000E+00
  0.00000000E+00  0.00000000E+00  0.00000000E+00
  0.00000000E+00  0.00000000E+00  0.00000000E+00
  0.00000000E+00  0.00000000E+00  0.00000000E+00
  0.00000000E+00  0.00000000E+00  0.00000000E+00
  0.00000000E+00  0.00000000E+00  0.00000000E+00
  0.00000000E+00  0.00000000E+00  0.00000000E+00
  0.00000000E+00  0.00000000E+00  0.00000000E+00
  0.00000000E+00  0.00000000E+00  0.00000000E+00
  0.00000000E+00  0.00000000E+00  0.00000000E+00
  0.00000000E+00  0.00000000E+00  0.00000000E+00
  0.00000000E+00  0.00000000E+00  0.00000000E+00
  0.00000000E+00  0.00000000E+00  0.00000000E+00
  0.00000000E+00  0.00000000E+00  0.00000000E+00
  0.00000000E+00  0.00000000E+00  0.00000000E+00
  0.00000000E+00  0.00000000E+00  0.00000000E+00
  0.00000000E+00  0.00000000E+00  0.00000000E+00
  0.00000000E+00  0.00000000E+00  0.00000000E+00
  0.00000000E+00  0.00000000E+00  0.00000000E+00
  0.00000000E+00  0.00000000E+00  0.00000000E+00
  0.00000000E+00  0.00000000E+00  0.00000000E+00
  0.00000000E+00  0.00000000E+00  0.00000000E+00
  0.00000000E+00  0.00000000E+00  0.00000000E+00
  0.00000000E+00  0.00000000E+00  0.00000000E+00
  0.00000000E+00  0.00000000E+00  0.00000000E+00
  0.00000000E+00  0.00000000E+00  0.00000000E+00
  0.00000000E+00  0.00000000E+00  0.00000000E+00
  0.00000000E+00  0.00000000E+00  0.00000000E+00
  0.00000000E+00  0.00000000E+00  0.00000000E+00
  0.00000000E+00  0.00000000E+00  0.00000000E+00
  0.00000000E+00  0.00000000E+00  0.00000000E+00
  0.00000000E+00  0.00000000E+00  0.00000000E+00
  0.00000000E+00  0.00000000E+00  0.00000000E+00
  0.00000000E+00  0.00000000E+00  0.00000000E+00
  0.00000000E+00  0.00000000E+00  0.00000000E+00
  0.00000000E+00  0.00000000E+00  0.00000000E+00
  0.00000000E+00  0.00000000E+00  0.00000000E+00
  0.00000000E+00  0.00000000E+00  0.00000000E+00
  0.00000000E+00  0.00000000E+00  0.00000000E+00
  0.00000000E+00  0.00000000E+00  0.00000000E+00
  0.00000000E+00  0.00000000E+00  0.00000000E+00
  0.00000000E+00  0.00000000E+00  0.00000000E+00
  0.00000000E+00  0.00000000E+00  0.00000000E+00
  0.00000000E+00  0.00000000E+00  0.00000000E+00
  0.00000000E+00  0.00000000E+00  0.00000000E+00
  0.00000000E+00  0.00000000E+00  0.00000000E+00
