Sodilite                                
   1.00000000000000     
     9.2351905910686227   -0.0000000000000000    0.0000000000000000
    -0.0000000000000000    9.2351905910686227   -0.0000000000000000
    -0.0000000000000000    0.0000000000000000    9.2351905910686227
   O    Na   Al   Si   Cl   K 
    24     4     6     6     2     4
Direct
  0.1432488027834348  0.4587269750899304  0.1528318679839905
  0.8567511972165651  0.5412730249100692  0.1528318679839905
  0.8567511972165651  0.4587269750899304  0.8471681320160097
  0.1432488027834348  0.5412730249100692  0.8471681320160097
  0.1528318679839905  0.1432488027834348  0.4587269750899304
  0.1528318679839905  0.8567511972165651  0.5412730249100693
  0.8471681320160097  0.8567511972165651  0.4587269750899304
  0.8471681320160097  0.1432488027834348  0.5412730249100692
  0.4587269750899304  0.1528318679839905  0.1432488027834348
  0.5412730249100693  0.1528318679839905  0.8567511972165651
  0.4587269750899304  0.8471681320160097  0.8567511972165651
  0.5412730249100693  0.8471681320160097  0.1432488027834348
  0.9654515427601348  0.6436401481035186  0.6528910234767152
  0.0345484572398650  0.3563598518964813  0.6528910234767152
  0.9654515427601348  0.3563598518964813  0.3471089765232847
  0.0345484572398650  0.6436401481035186  0.3471089765232847
  0.6436401481035186  0.6528910234767152  0.9654515427601348
  0.3563598518964813  0.6528910234767152  0.0345484572398650
  0.3563598518964813  0.3471089765232847  0.9654515427601348
  0.6436401481035186  0.3471089765232847  0.0345484572398650
  0.6528910234767152  0.9654515427601348  0.6436401481035186
  0.6528910234767152  0.0345484572398650  0.3563598518964813
  0.3471089765232847  0.9654515427601348  0.3563598518964813
  0.3471089765232847  0.0345484572398650  0.6436401481035186
  0.1896872215671555  0.1896872215671555  0.1896872215671555
  0.8103127784328443  0.8103127784328443  0.1896872215671555
  0.8103127784328443  0.1896872215671555  0.8103127784328443
  0.1896872215671555  0.8103127784328443  0.8103127784328443
  0.2492150553085339  0.5000000000000000  0.0000000000000000
  0.7507849446914658  0.5000000000000000  0.0000000000000000
  0.0000000000000000  0.2492150553085339  0.5000000000000000
  0.0000000000000000  0.7507849446914658  0.5000000000000000
  0.5000000000000000  0.0000000000000000  0.2492150553085339
  0.5000000000000000  0.0000000000000000  0.7507849446914658
  0.2496394585180246  0.0000000000000000  0.5000000000000000
  0.7503605414819751  0.0000000000000000  0.5000000000000000
  0.5000000000000000  0.2496394585180246  0.0000000000000000
  0.5000000000000000  0.7503605414819752  0.0000000000000000
  0.0000000000000000  0.5000000000000000  0.2496394585180246
  0.0000000000000000  0.5000000000000000  0.7503605414819752
  0.0000000000000000  0.0000000000000000  0.0000000000000000
  0.5000000000000000  0.5000000000000000  0.5000000000000000
  0.6811732737974471  0.6811732737974471  0.6811732737974471
  0.3188267262025531  0.3188267262025531  0.6811732737974471
  0.6811732737974471  0.3188267262025531  0.3188267262025531
  0.3188267262025531  0.6811732737974471  0.3188267262025531
 
  0.00000000E+00  0.00000000E+00  0.00000000E+00
  0.00000000E+00  0.00000000E+00  0.00000000E+00
  0.00000000E+00  0.00000000E+00  0.00000000E+00
  0.00000000E+00  0.00000000E+00  0.00000000E+00
  0.00000000E+00  0.00000000E+00  0.00000000E+00
  0.00000000E+00  0.00000000E+00  0.00000000E+00
  0.00000000E+00  0.00000000E+00  0.00000000E+00
  0.00000000E+00  0.00000000E+00  0.00000000E+00
  0.00000000E+00  0.00000000E+00  0.00000000E+00
  0.00000000E+00  0.00000000E+00  0.00000000E+00
  0.00000000E+00  0.00000000E+00  0.00000000E+00
  0.00000000E+00  0.00000000E+00  0.00000000E+00
  0.00000000E+00  0.00000000E+00  0.00000000E+00
  0.00000000E+00  0.00000000E+00  0.00000000E+00
  0.00000000E+00  0.00000000E+00  0.00000000E+00
  0.00000000E+00  0.00000000E+00  0.00000000E+00
  0.00000000E+00  0.00000000E+00  0.00000000E+00
  0.00000000E+00  0.00000000E+00  0.00000000E+00
  0.00000000E+00  0.00000000E+00  0.00000000E+00
  0.00000000E+00  0.00000000E+00  0.00000000E+00
  0.00000000E+00  0.00000000E+00  0.00000000E+00
  0.00000000E+00  0.00000000E+00  0.00000000E+00
  0.00000000E+00  0.00000000E+00  0.00000000E+00
  0.00000000E+00  0.00000000E+00  0.00000000E+00
  0.00000000E+00  0.00000000E+00  0.00000000E+00
  0.00000000E+00  0.00000000E+00  0.00000000E+00
  0.00000000E+00  0.00000000E+00  0.00000000E+00
  0.00000000E+00  0.00000000E+00  0.00000000E+00
  0.00000000E+00  0.00000000E+00  0.00000000E+00
  0.00000000E+00  0.00000000E+00  0.00000000E+00
  0.00000000E+00  0.00000000E+00  0.00000000E+00
  0.00000000E+00  0.00000000E+00  0.00000000E+00
  0.00000000E+00  0.00000000E+00  0.00000000E+00
  0.00000000E+00  0.00000000E+00  0.00000000E+00
  0.00000000E+00  0.00000000E+00  0.00000000E+00
  0.00000000E+00  0.00000000E+00  0.00000000E+00
  0.00000000E+00  0.00000000E+00  0.00000000E+00
  0.00000000E+00  0.00000000E+00  0.00000000E+00
  0.00000000E+00  0.00000000E+00  0.00000000E+00
  0.00000000E+00  0.00000000E+00  0.00000000E+00
  0.00000000E+00  0.00000000E+00  0.00000000E+00
  0.00000000E+00  0.00000000E+00  0.00000000E+00
  0.00000000E+00  0.00000000E+00  0.00000000E+00
  0.00000000E+00  0.00000000E+00  0.00000000E+00
  0.00000000E+00  0.00000000E+00  0.00000000E+00
  0.00000000E+00  0.00000000E+00  0.00000000E+00
