Sodilite                                
   1.00000000000000     
     9.1726412010829552    0.0033636669138112    0.0264986408281092
     0.0033662146459405    9.1738737840930167   -0.0249193186726044
     0.0265034706468148   -0.0249207282122330    9.1824118503754839
   O    Na   Al   Si   Cl   K 
    24     4     6     6     2     4
Direct
  0.1337738457093605  0.4652097661537531  0.1458140236530467
  0.8460852042896763  0.5419284359950272  0.1586057622801729
  0.8647017325666624  0.4612514385493591  0.8560237791464469
  0.1479490934756802  0.5523471062243763  0.8394923462623856
  0.1392885221877041  0.1361091195457415  0.4624569266611396
  0.1589224142811234  0.8508985245113954  0.5484826998221332
  0.8534891499242326  0.8683700677859918  0.4611451107150460
  0.8363703627332735  0.1534433395271088  0.5429273418317321
  0.4567475096570104  0.1629523520929423  0.1497093060290666
  0.5384953545660399  0.1467666311173486  0.8648065538594800
  0.4491857644738845  0.8436237697298115  0.8484820893473370
  0.5345848400177831  0.8569176436377002  0.1346462345858765
  0.9472463191673363  0.6463345200718387  0.6540672022249838
  0.0463376101208154  0.3632251152391232  0.6505497557961177
  0.9533518508245180  0.3547390721203895  0.3440562678293447
  0.0362535662193855  0.6419311477642949  0.3519766712785524
  0.6471438793375562  0.6625292626962195  0.9502161092172821
  0.3636752446125578  0.6463252253675860  0.0404113256664906
  0.3485333882112616  0.3445972340380530  0.9520410568310642
  0.6354986081505436  0.3553502180851101  0.0415182591759129
  0.6460689883272528  0.9546333216845956  0.6394310375409422
  0.6533987720180588  0.0457212118261363  0.3531037847104035
  0.3470949293971631  0.9627788277754057  0.3612682222418155
  0.3432041558155293  0.0535121358796817  0.6450205423303207
  0.2048009740543963  0.7963289278216772  0.7945377181654738
  0.6911795421774038  0.6918585214987432  0.6923205260682677
  0.3093373907545228  0.3091526940215634  0.6938128782780253
  0.6867810118865979  0.3130710697053158  0.3182784613086547
  0.2468535686708094  0.5029281379059374 -0.0044053311205866
  0.7463572460293747  0.5058110834536125  0.0000109046779707
 -0.0061295243000862  0.2538773329951517  0.5015753786300817
 -0.0013012414351964  0.7531229450528151  0.5039029684817031
  0.4966252759272751  0.0060288019619465  0.2499576822212833
  0.4943744849139480  0.0013466266069535  0.7492030435203944
  0.2467083801012198  0.0013343509441902  0.5043488960594272
  0.7464866295350229  0.0056400602948135  0.5000605264842960
  0.4944507699776902  0.2533518610814295  0.0011572241133023
  0.4978105242676567  0.7530122451802655 -0.0059111731155055
 -0.0071891556045588  0.5019770482399614  0.2502503125073102
  0.0003663826457087  0.5060344165779279  0.7498458724233433
  0.0376955928398705 -0.0375058261510996 -0.0416018785288910
  0.5285154282402873  0.4718149001668943  0.5358778648575913
  0.1656271626013312  0.1709646903070732  0.1712480284522452
  0.8286849065931112  0.8333688984291450  0.1700983847241156
  0.8272803541804178  0.1729607199291913  0.8318666205463562
  0.3372831898587901  0.6620250065575012  0.3373126822080447
 
  0.00000000E+00  0.00000000E+00  0.00000000E+00
  0.00000000E+00  0.00000000E+00  0.00000000E+00
  0.00000000E+00  0.00000000E+00  0.00000000E+00
  0.00000000E+00  0.00000000E+00  0.00000000E+00
  0.00000000E+00  0.00000000E+00  0.00000000E+00
  0.00000000E+00  0.00000000E+00  0.00000000E+00
  0.00000000E+00  0.00000000E+00  0.00000000E+00
  0.00000000E+00  0.00000000E+00  0.00000000E+00
  0.00000000E+00  0.00000000E+00  0.00000000E+00
  0.00000000E+00  0.00000000E+00  0.00000000E+00
  0.00000000E+00  0.00000000E+00  0.00000000E+00
  0.00000000E+00  0.00000000E+00  0.00000000E+00
  0.00000000E+00  0.00000000E+00  0.00000000E+00
  0.00000000E+00  0.00000000E+00  0.00000000E+00
  0.00000000E+00  0.00000000E+00  0.00000000E+00
  0.00000000E+00  0.00000000E+00  0.00000000E+00
  0.00000000E+00  0.00000000E+00  0.00000000E+00
  0.00000000E+00  0.00000000E+00  0.00000000E+00
  0.00000000E+00  0.00000000E+00  0.00000000E+00
  0.00000000E+00  0.00000000E+00  0.00000000E+00
  0.00000000E+00  0.00000000E+00  0.00000000E+00
  0.00000000E+00  0.00000000E+00  0.00000000E+00
  0.00000000E+00  0.00000000E+00  0.00000000E+00
  0.00000000E+00  0.00000000E+00  0.00000000E+00
  0.00000000E+00  0.00000000E+00  0.00000000E+00
  0.00000000E+00  0.00000000E+00  0.00000000E+00
  0.00000000E+00  0.00000000E+00  0.00000000E+00
  0.00000000E+00  0.00000000E+00  0.00000000E+00
  0.00000000E+00  0.00000000E+00  0.00000000E+00
  0.00000000E+00  0.00000000E+00  0.00000000E+00
  0.00000000E+00  0.00000000E+00  0.00000000E+00
  0.00000000E+00  0.00000000E+00  0.00000000E+00
  0.00000000E+00  0.00000000E+00  0.00000000E+00
  0.00000000E+00  0.00000000E+00  0.00000000E+00
  0.00000000E+00  0.00000000E+00  0.00000000E+00
  0.00000000E+00  0.00000000E+00  0.00000000E+00
  0.00000000E+00  0.00000000E+00  0.00000000E+00
  0.00000000E+00  0.00000000E+00  0.00000000E+00
  0.00000000E+00  0.00000000E+00  0.00000000E+00
  0.00000000E+00  0.00000000E+00  0.00000000E+00
  0.00000000E+00  0.00000000E+00  0.00000000E+00
  0.00000000E+00  0.00000000E+00  0.00000000E+00
  0.00000000E+00  0.00000000E+00  0.00000000E+00
  0.00000000E+00  0.00000000E+00  0.00000000E+00
  0.00000000E+00  0.00000000E+00  0.00000000E+00
  0.00000000E+00  0.00000000E+00  0.00000000E+00
