Sodilite                                
   1.00000000000000     
     9.2112123050583232    0.0061825584538073   -0.0130182415013790
     0.0062019404891104    9.2317303641363146   -0.0057483404861976
    -0.0130210141375143   -0.0057374724786074    9.2124784434478517
   O    Na   Al   Si   Cl   K 
    24     3     6     6     2     5
Direct
  0.1533085449771690  0.4530150032635586  0.1673977083892286
  0.8696702190762921  0.5353462250626770  0.1401822437118636
  0.8428258115817064  0.4540948007351928  0.8378144431823910
  0.1307734589179045  0.5287261017202594  0.8598555667629693
  0.1525398280310631  0.1450620629235128  0.4561409924993213
  0.1493464838184169  0.8571479787865323  0.5318252564057289
  0.8427977307694058  0.8553774616946646  0.4655777427149392
  0.8485708089945340  0.1398780257834168  0.5489447851912043
  0.4517669146346723  0.1486816234737185  0.1411411120876111
  0.5440534626658242  0.1549890415039686  0.8572525793276190
  0.4672850517386325  0.8475420605599348  0.8588457193104160
  0.5342673962281775  0.8453914702029153  0.1474143859202248
  0.9639141270628793  0.6477498718111745  0.6617204691059089
  0.0353955589554146  0.3617779434343641  0.6462939644434947
  0.9514212526618456  0.3487582352327460  0.3430662269889381
  0.0314158770946175  0.6347451721272221  0.3537257618243939
  0.6373239477819982  0.6448481577183754  0.9694453568959371
  0.3478735408432591  0.6568884422483805  0.0348795886607649
  0.3642497028925419  0.3531935791346359  0.9635465025516304
  0.6478583819277541  0.3389838760291418  0.0499173398769158
  0.6409316872158853  0.9655732767567743  0.6350658830185766
  0.6610994366778739  0.0457675685742856  0.3493341375918875
  0.3552640004914167  0.9652910957577611  0.3663553358407065
  0.3364390629045593  0.0363368761086507  0.6529277506875467
  0.1974400519263692  0.1980561240142693  0.1979951988634289
  0.8029098515914093  0.1991323905781243  0.8028273048207755
  0.7075193508162307  0.2922969542019653  0.2934455858892374
  0.2477300472838271  0.4967310109393223  0.0065089706974717
  0.7485501820429055  0.4931191850171188  0.0004491474143783
 -0.0032399289599537  0.2482231337735421  0.4991147749093850
 -0.0039571746196262  0.7479743880116514  0.5027640276651857
  0.5012440224130148  0.0016485901900887  0.2516451754320692
  0.4966445875371779  0.0020677475043882  0.7522742562554648
  0.2478989363377979  0.0013515329764270  0.5020956221812367
  0.7481569457731038  0.0018573281039599  0.4996587994151778
  0.5015343572969675  0.2487004392105070  0.0033298807700793
  0.4969104253128947  0.7482992010445170  0.0031780471494385
  0.0005012113576350  0.4927982090586898  0.2514638444743808
 -0.0067084854372148  0.4972726559655339  0.7520354678702257
 -0.0020640366170054  0.0698619762000420  0.0023098407965725
  0.5383549249505225  0.4579838105765759  0.4618680076785067
  0.8323034356178459  0.8309785263514122  0.1676859652233498
  0.1648416507449433  0.8338538354358214  0.8345016810681641
  0.6683807549611225  0.6721323210418594  0.6720723803321854
  0.3262428735225971  0.3287562922929098  0.6733633262993832
  0.3284137282035924  0.6717383968674098  0.3307418418036838
 
  0.00000000E+00  0.00000000E+00  0.00000000E+00
  0.00000000E+00  0.00000000E+00  0.00000000E+00
  0.00000000E+00  0.00000000E+00  0.00000000E+00
  0.00000000E+00  0.00000000E+00  0.00000000E+00
  0.00000000E+00  0.00000000E+00  0.00000000E+00
  0.00000000E+00  0.00000000E+00  0.00000000E+00
  0.00000000E+00  0.00000000E+00  0.00000000E+00
  0.00000000E+00  0.00000000E+00  0.00000000E+00
  0.00000000E+00  0.00000000E+00  0.00000000E+00
  0.00000000E+00  0.00000000E+00  0.00000000E+00
  0.00000000E+00  0.00000000E+00  0.00000000E+00
  0.00000000E+00  0.00000000E+00  0.00000000E+00
  0.00000000E+00  0.00000000E+00  0.00000000E+00
  0.00000000E+00  0.00000000E+00  0.00000000E+00
  0.00000000E+00  0.00000000E+00  0.00000000E+00
  0.00000000E+00  0.00000000E+00  0.00000000E+00
  0.00000000E+00  0.00000000E+00  0.00000000E+00
  0.00000000E+00  0.00000000E+00  0.00000000E+00
  0.00000000E+00  0.00000000E+00  0.00000000E+00
  0.00000000E+00  0.00000000E+00  0.00000000E+00
  0.00000000E+00  0.00000000E+00  0.00000000E+00
  0.00000000E+00  0.00000000E+00  0.00000000E+00
  0.00000000E+00  0.00000000E+00  0.00000000E+00
  0.00000000E+00  0.00000000E+00  0.00000000E+00
  0.00000000E+00  0.00000000E+00  0.00000000E+00
  0.00000000E+00  0.00000000E+00  0.00000000E+00
  0.00000000E+00  0.00000000E+00  0.00000000E+00
  0.00000000E+00  0.00000000E+00  0.00000000E+00
  0.00000000E+00  0.00000000E+00  0.00000000E+00
  0.00000000E+00  0.00000000E+00  0.00000000E+00
  0.00000000E+00  0.00000000E+00  0.00000000E+00
  0.00000000E+00  0.00000000E+00  0.00000000E+00
  0.00000000E+00  0.00000000E+00  0.00000000E+00
  0.00000000E+00  0.00000000E+00  0.00000000E+00
  0.00000000E+00  0.00000000E+00  0.00000000E+00
  0.00000000E+00  0.00000000E+00  0.00000000E+00
  0.00000000E+00  0.00000000E+00  0.00000000E+00
  0.00000000E+00  0.00000000E+00  0.00000000E+00
  0.00000000E+00  0.00000000E+00  0.00000000E+00
  0.00000000E+00  0.00000000E+00  0.00000000E+00
  0.00000000E+00  0.00000000E+00  0.00000000E+00
  0.00000000E+00  0.00000000E+00  0.00000000E+00
  0.00000000E+00  0.00000000E+00  0.00000000E+00
  0.00000000E+00  0.00000000E+00  0.00000000E+00
  0.00000000E+00  0.00000000E+00  0.00000000E+00
  0.00000000E+00  0.00000000E+00  0.00000000E+00
