Sodilite                                
   1.00000000000000     
     9.3433956440328387    0.0093258634460790   -0.0093258643808293
     0.0093258643808293    9.3433956440328387    0.0093258634460790
    -0.0093258634460790    0.0093258643808293    9.3433956440328387
   O    Na   Al   Si   Cl   K 
    24     1     6     6     2     7
Direct
  0.1495143626964493  0.4755484923734473  0.1586250794767484
  0.8614844034340037  0.5227923667831188  0.1500810868981520
  0.8514163325533899  0.4669565713359062  0.8423865943781252
  0.1399162346922684  0.5217894852898582  0.8526565050152278
  0.1500810868981520  0.1385155965659963  0.4772076332168810
  0.1586250794767484  0.8504856373035511  0.5244515076265523
  0.8526565050152278  0.8600837653077317  0.4782105147101418
  0.8423865943781252  0.1485836674466098  0.5330434286640942
  0.4782105147101418  0.1473434949847720  0.1399162346922684
  0.5330434286640942  0.1576134056218744  0.8514163325533899
  0.4772076332168810  0.8499189131018479  0.8614844034340037
  0.5244515076265523  0.8413749205232512  0.1495143626964493
  0.9763896237696856  0.6434005967987795  0.6569192033177601
  0.0262584835786765  0.3556471530867230  0.6530776457053545
  0.9774129227567061  0.3530686104188550  0.3470779626039895
  0.0225362046058244  0.6424046651088209  0.3487473943372503
  0.6469313895811449  0.6529220373960098  0.9774129227567061
  0.3575953348911793  0.6512526056627502  0.0225362046058244
  0.3565994032012197  0.3430807966822405  0.9763896237696856
  0.6443528469132770  0.3469223542946452  0.0262584835786765
  0.6530776457053545  0.9737415164213238  0.6443528469132770
  0.6569192033177601  0.0236103762303141  0.3565994032012197
  0.3487473943372503  0.9774637953941755  0.3575953348911793
  0.3470779626039895  0.0225870772432938  0.6469313895811449
  0.7947938993267446  0.2052061006732558  0.7947938993267446
  0.2515563985130091  0.4973701987279859  0.0021257872911810
  0.7518998863599909  0.4975685017299046 -0.0004940815555699
 -0.0004940815555699  0.2481001136400093  0.5024314982700951
  0.0021257872911810  0.7484436014869912  0.5026298012720142
  0.5026298012720142 -0.0021257872911810  0.2515563985130091
  0.5024314982700951  0.0004940815555699  0.7518998863599909
  0.2514152857222188 -0.0025246164259031  0.5019326984245955
  0.7516469584298705  0.0010798903488312  0.5030624445097847
  0.5030624445097847  0.2483530415701297 -0.0010798903488312
  0.5019326984245955  0.7485847142777812  0.0025246164259031
  0.0025246164259031  0.4980673015754051  0.2514152857222188
 -0.0010798903488312  0.4969375554902152  0.7516469584298705
 -0.0330851485153532  0.0330851485153532 -0.0330851485153532
  0.5032119104576314  0.4967880895423693  0.5032119104576314
  0.1783029754571625  0.1777081736183425  0.1777691819614720
  0.8222918263816577  0.8222308180385284  0.1783029754571625
  0.1777691819614720  0.8216970245428376  0.8222918263816577
  0.6852481712273923  0.6854140640416855  0.6858629229071292
  0.3145859359583150  0.3141370770928707  0.6852481712273923
  0.6858629229071292  0.3147518287726072  0.3145859359583150
  0.3184748228994850  0.6815251771005154  0.3184748228994850
 
  0.00000000E+00  0.00000000E+00  0.00000000E+00
  0.00000000E+00  0.00000000E+00  0.00000000E+00
  0.00000000E+00  0.00000000E+00  0.00000000E+00
  0.00000000E+00  0.00000000E+00  0.00000000E+00
  0.00000000E+00  0.00000000E+00  0.00000000E+00
  0.00000000E+00  0.00000000E+00  0.00000000E+00
  0.00000000E+00  0.00000000E+00  0.00000000E+00
  0.00000000E+00  0.00000000E+00  0.00000000E+00
  0.00000000E+00  0.00000000E+00  0.00000000E+00
  0.00000000E+00  0.00000000E+00  0.00000000E+00
  0.00000000E+00  0.00000000E+00  0.00000000E+00
  0.00000000E+00  0.00000000E+00  0.00000000E+00
  0.00000000E+00  0.00000000E+00  0.00000000E+00
  0.00000000E+00  0.00000000E+00  0.00000000E+00
  0.00000000E+00  0.00000000E+00  0.00000000E+00
  0.00000000E+00  0.00000000E+00  0.00000000E+00
  0.00000000E+00  0.00000000E+00  0.00000000E+00
  0.00000000E+00  0.00000000E+00  0.00000000E+00
  0.00000000E+00  0.00000000E+00  0.00000000E+00
  0.00000000E+00  0.00000000E+00  0.00000000E+00
  0.00000000E+00  0.00000000E+00  0.00000000E+00
  0.00000000E+00  0.00000000E+00  0.00000000E+00
  0.00000000E+00  0.00000000E+00  0.00000000E+00
  0.00000000E+00  0.00000000E+00  0.00000000E+00
  0.00000000E+00  0.00000000E+00  0.00000000E+00
  0.00000000E+00  0.00000000E+00  0.00000000E+00
  0.00000000E+00  0.00000000E+00  0.00000000E+00
  0.00000000E+00  0.00000000E+00  0.00000000E+00
  0.00000000E+00  0.00000000E+00  0.00000000E+00
  0.00000000E+00  0.00000000E+00  0.00000000E+00
  0.00000000E+00  0.00000000E+00  0.00000000E+00
  0.00000000E+00  0.00000000E+00  0.00000000E+00
  0.00000000E+00  0.00000000E+00  0.00000000E+00
  0.00000000E+00  0.00000000E+00  0.00000000E+00
  0.00000000E+00  0.00000000E+00  0.00000000E+00
  0.00000000E+00  0.00000000E+00  0.00000000E+00
  0.00000000E+00  0.00000000E+00  0.00000000E+00
  0.00000000E+00  0.00000000E+00  0.00000000E+00
  0.00000000E+00  0.00000000E+00  0.00000000E+00
  0.00000000E+00  0.00000000E+00  0.00000000E+00
  0.00000000E+00  0.00000000E+00  0.00000000E+00
  0.00000000E+00  0.00000000E+00  0.00000000E+00
  0.00000000E+00  0.00000000E+00  0.00000000E+00
  0.00000000E+00  0.00000000E+00  0.00000000E+00
  0.00000000E+00  0.00000000E+00  0.00000000E+00
  0.00000000E+00  0.00000000E+00  0.00000000E+00
