Sodilite                                
   1.00000000000000     
     9.3096372194528154    0.0000000000000000    0.0000000000000000
     0.0000000000000000    9.3015171211782199   -0.0214059282107626
     0.0000000000000000   -0.0213970581173426    9.3007833256046375
   O    Na   Al   Si   Cl   K 
    24     2     6     6     2     6
Direct
  0.1425373819355803  0.4638922294410979  0.1538852072878841
  0.8546113317100895  0.5265450400183856  0.1526062793298844
  0.8546113317100895  0.4734549599816147  0.8473937206701160
  0.1425373819355803  0.5361077705589016  0.8461147927121162
  0.1514481052763982  0.1440482343878430  0.4651035364636057
  0.1514481052763982  0.8559517656121570  0.5348964635363943
  0.8446673271279057  0.8561566053910056  0.4724125452506647
  0.8446673271279057  0.1438433946089943  0.5275874547493347
  0.4620897209867195  0.1614656427687481  0.1525792571557803
  0.5248640716573609  0.1449820958378426  0.8649769568852415
  0.4620897209867195  0.8385343572312519  0.8474207428442196
  0.5248640716573609  0.8550179041621578  0.1350230431147583
  0.9706831873429426  0.6429961799109476  0.6511643124720488
  0.0264823868456225  0.3547157733401442  0.6556750865098123
  0.9706831873429426  0.3570038200890530  0.3488356875279515
  0.0264823868456225  0.6452842266598555  0.3443249134901880
  0.6410963098508202  0.6543933180445041  0.9729354038150732
  0.3530798747801481  0.6525294767453488  0.0287200735494223
  0.3530798747801481  0.3474705232546513  0.9712799264505776
  0.6410963098508202  0.3456066819554962  0.0270645961849273
  0.6503427261742734  0.9741680464177724  0.6449259925087811
  0.6503427261742734  0.0258319535822273  0.3550740074912192
  0.3438386367352089  0.9702520647963897  0.3564828469255001
  0.3438386367352089  0.0297479352036098  0.6435171530744994
  0.2016769399107533  0.1973508315124042  0.1972757875685708
  0.2016769399107533  0.8026491684875956  0.8027242124314294
  0.2462444423300194  0.5000000000000000 -0.0000000000000000
  0.7465792656640472  0.5000000000000000 -0.0000000000000000
 -0.0016883604905939  0.2495947641774605  0.5001921720953478
 -0.0016883604905939  0.7504052358225400  0.4998078279046523
  0.4951107169076341  0.0022076564758100  0.2494338598500271
  0.4951107169076341 -0.0022076564758100  0.7505661401499730
  0.2469485457715932  0.0000000000000000  0.5000000000000000
  0.7469448661483610  0.0000000000000000  0.5000000000000000
  0.4950402020974282  0.2496943339777995  0.0033156157402824
  0.4950402020974282  0.7503056660222005 -0.0033156157402824
 -0.0016138113421367  0.4986495643946880  0.2497590571283365
 -0.0016138113421367  0.5013504356053124  0.7502409428716637
  0.0612137511617741  0.0000000000000000 -0.0000000000000000
  0.4944683057351195  0.5000000000000000  0.5000000000000000
  0.8282882736896512  0.8275059356827525  0.1718480610178013
  0.8282882736896512  0.1724940643172468  0.8281519389821991
  0.6814618679731951  0.6820079298267676  0.6812641913444313
  0.3147835224255405  0.3156846535340088  0.6849237458030368
  0.6814618679731951  0.3179920701732322  0.3187358086555686
  0.3147835224255405  0.6843153464659912  0.3150762541969632
 
  0.00000000E+00  0.00000000E+00  0.00000000E+00
  0.00000000E+00  0.00000000E+00  0.00000000E+00
  0.00000000E+00  0.00000000E+00  0.00000000E+00
  0.00000000E+00  0.00000000E+00  0.00000000E+00
  0.00000000E+00  0.00000000E+00  0.00000000E+00
  0.00000000E+00  0.00000000E+00  0.00000000E+00
  0.00000000E+00  0.00000000E+00  0.00000000E+00
  0.00000000E+00  0.00000000E+00  0.00000000E+00
  0.00000000E+00  0.00000000E+00  0.00000000E+00
  0.00000000E+00  0.00000000E+00  0.00000000E+00
  0.00000000E+00  0.00000000E+00  0.00000000E+00
  0.00000000E+00  0.00000000E+00  0.00000000E+00
  0.00000000E+00  0.00000000E+00  0.00000000E+00
  0.00000000E+00  0.00000000E+00  0.00000000E+00
  0.00000000E+00  0.00000000E+00  0.00000000E+00
  0.00000000E+00  0.00000000E+00  0.00000000E+00
  0.00000000E+00  0.00000000E+00  0.00000000E+00
  0.00000000E+00  0.00000000E+00  0.00000000E+00
  0.00000000E+00  0.00000000E+00  0.00000000E+00
  0.00000000E+00  0.00000000E+00  0.00000000E+00
  0.00000000E+00  0.00000000E+00  0.00000000E+00
  0.00000000E+00  0.00000000E+00  0.00000000E+00
  0.00000000E+00  0.00000000E+00  0.00000000E+00
  0.00000000E+00  0.00000000E+00  0.00000000E+00
  0.00000000E+00  0.00000000E+00  0.00000000E+00
  0.00000000E+00  0.00000000E+00  0.00000000E+00
  0.00000000E+00  0.00000000E+00  0.00000000E+00
  0.00000000E+00  0.00000000E+00  0.00000000E+00
  0.00000000E+00  0.00000000E+00  0.00000000E+00
  0.00000000E+00  0.00000000E+00  0.00000000E+00
  0.00000000E+00  0.00000000E+00  0.00000000E+00
  0.00000000E+00  0.00000000E+00  0.00000000E+00
  0.00000000E+00  0.00000000E+00  0.00000000E+00
  0.00000000E+00  0.00000000E+00  0.00000000E+00
  0.00000000E+00  0.00000000E+00  0.00000000E+00
  0.00000000E+00  0.00000000E+00  0.00000000E+00
  0.00000000E+00  0.00000000E+00  0.00000000E+00
  0.00000000E+00  0.00000000E+00  0.00000000E+00
  0.00000000E+00  0.00000000E+00  0.00000000E+00
  0.00000000E+00  0.00000000E+00  0.00000000E+00
  0.00000000E+00  0.00000000E+00  0.00000000E+00
  0.00000000E+00  0.00000000E+00  0.00000000E+00
  0.00000000E+00  0.00000000E+00  0.00000000E+00
  0.00000000E+00  0.00000000E+00  0.00000000E+00
  0.00000000E+00  0.00000000E+00  0.00000000E+00
  0.00000000E+00  0.00000000E+00  0.00000000E+00
