Sodilite                                
   1.00000000000000     
     9.1822787663721410   -0.0258937985095724   -0.0244378324216107
    -0.0258905697316363    9.1734439537680554   -0.0032223260745789
    -0.0244380138492969   -0.0032251337858201    9.1744877953574093
   O    Na   Al   Si   Cl   K 
    24     4     6     6     2     4
Direct
  0.1513547569109691  0.4491906355588752  0.1562014602981722
  0.8651243668585917  0.5344628590816175  0.1432942191350829
  0.8504702813353514  0.4569288099993479  0.8372647560987275
  0.1354449815563614  0.5384782548005312  0.8529825180975377
  0.1603025047544989  0.1477151417941350  0.4476689479051927
  0.1442467289826241  0.8643732440470133  0.5386458089562136
  0.8416060204567287  0.8462413656920933  0.4582415329205529
  0.8539998133621819  0.1339507656020536  0.5347454037175663
  0.4515315192309125  0.1587995611424156  0.1489402093120526
  0.5374116831790660  0.1394893737071160  0.8636425386320109
  0.4572037222604327  0.8365507906448711  0.8467049067542375
  0.5387992778013115  0.8533278249324828  0.1317918276268570
  0.9584813241322855  0.6354640975814170  0.6446536148303943
  0.0478419825027697  0.3484963411881865  0.6553830357234488
  0.9597780409101343  0.3635627985690896  0.3536528297897039
  0.0497307001247621  0.6470523823302538  0.3374775705472919
  0.6468717975596208  0.6533862550455497  0.9543477437515077
  0.3604798810065212  0.6461432110230858  0.0452520187186928
  0.3549438642296601  0.3432485388213542  0.9465853667314269
  0.6387336784034069  0.3470721649434507  0.0370814398711175
  0.6559239253991298  0.9533990551467020  0.6452122854529987
  0.6480565661405111  0.0360772208409085  0.3580011408403267
  0.3459499985916030  0.9473726031710935  0.3536132757127757
  0.3493866966271053  0.0462647631614039  0.6367796584508784
  0.2051895459292780  0.2046064590667940  0.2034885354631167
  0.6821100556860344  0.6871048796310506  0.6872448262678795
  0.3062298250410079  0.3095542076744881  0.6910235499941357
  0.3077437622721804  0.6913439419162224  0.3083238273038540
  0.2507798354177768  0.4944073845897698 -0.0013756608744784
  0.7500066001904246  0.4966384912318914 -0.0059511589457735
  0.0043650437621349  0.2468160598019362  0.4970831760168366
  0.0000541764448382  0.7462854672667478  0.4942006110918629
  0.4961121405734247 -0.0013180212981014  0.2468418030073364
  0.4984339323785668 -0.0060383095212993  0.7460847387244355
  0.2501568734841954  0.0002644635592360  0.4939660110507756
  0.7497593667895298 -0.0071220719019554  0.4980107033123970
  0.4956591627754311  0.2467296732555886 -0.0014047437140085
  0.4999456886616733  0.7465221968019583 -0.0055637999181206
  0.0058225575347286  0.4977693936911876  0.2469875753552161
 -0.0011000121697750  0.4944691317289854  0.7466456218322397
  0.0410653677514589  0.0375857847282161  0.0374024647005312
  0.4645726063981488  0.5285193018251780  0.5281974442858350
  0.8297770214555331  0.8284603755307492  0.1669025992938748
  0.8285803741861059  0.1659101724655774  0.8288516746133555
  0.1682329800411930  0.8273356232596116  0.8270547007611245
  0.6628289830795707  0.3371073358711203  0.3378213905028060
 
  0.00000000E+00  0.00000000E+00  0.00000000E+00
  0.00000000E+00  0.00000000E+00  0.00000000E+00
  0.00000000E+00  0.00000000E+00  0.00000000E+00
  0.00000000E+00  0.00000000E+00  0.00000000E+00
  0.00000000E+00  0.00000000E+00  0.00000000E+00
  0.00000000E+00  0.00000000E+00  0.00000000E+00
  0.00000000E+00  0.00000000E+00  0.00000000E+00
  0.00000000E+00  0.00000000E+00  0.00000000E+00
  0.00000000E+00  0.00000000E+00  0.00000000E+00
  0.00000000E+00  0.00000000E+00  0.00000000E+00
  0.00000000E+00  0.00000000E+00  0.00000000E+00
  0.00000000E+00  0.00000000E+00  0.00000000E+00
  0.00000000E+00  0.00000000E+00  0.00000000E+00
  0.00000000E+00  0.00000000E+00  0.00000000E+00
  0.00000000E+00  0.00000000E+00  0.00000000E+00
  0.00000000E+00  0.00000000E+00  0.00000000E+00
  0.00000000E+00  0.00000000E+00  0.00000000E+00
  0.00000000E+00  0.00000000E+00  0.00000000E+00
  0.00000000E+00  0.00000000E+00  0.00000000E+00
  0.00000000E+00  0.00000000E+00  0.00000000E+00
  0.00000000E+00  0.00000000E+00  0.00000000E+00
  0.00000000E+00  0.00000000E+00  0.00000000E+00
  0.00000000E+00  0.00000000E+00  0.00000000E+00
  0.00000000E+00  0.00000000E+00  0.00000000E+00
  0.00000000E+00  0.00000000E+00  0.00000000E+00
  0.00000000E+00  0.00000000E+00  0.00000000E+00
  0.00000000E+00  0.00000000E+00  0.00000000E+00
  0.00000000E+00  0.00000000E+00  0.00000000E+00
  0.00000000E+00  0.00000000E+00  0.00000000E+00
  0.00000000E+00  0.00000000E+00  0.00000000E+00
  0.00000000E+00  0.00000000E+00  0.00000000E+00
  0.00000000E+00  0.00000000E+00  0.00000000E+00
  0.00000000E+00  0.00000000E+00  0.00000000E+00
  0.00000000E+00  0.00000000E+00  0.00000000E+00
  0.00000000E+00  0.00000000E+00  0.00000000E+00
  0.00000000E+00  0.00000000E+00  0.00000000E+00
  0.00000000E+00  0.00000000E+00  0.00000000E+00
  0.00000000E+00  0.00000000E+00  0.00000000E+00
  0.00000000E+00  0.00000000E+00  0.00000000E+00
  0.00000000E+00  0.00000000E+00  0.00000000E+00
  0.00000000E+00  0.00000000E+00  0.00000000E+00
  0.00000000E+00  0.00000000E+00  0.00000000E+00
  0.00000000E+00  0.00000000E+00  0.00000000E+00
  0.00000000E+00  0.00000000E+00  0.00000000E+00
  0.00000000E+00  0.00000000E+00  0.00000000E+00
  0.00000000E+00  0.00000000E+00  0.00000000E+00
