Sodilite                                
   1.00000000000000     
     9.0537762640951094    0.0000000000000000    0.0000000000000000
     0.0000000000000000    9.0481032497069265    0.0319879542248820
     0.0000000000000000    0.0319790180649563    9.0451437184852796
   O    Na   Al   Si   Cl   K 
    24     6     6     6     2     2
Direct
  0.1425890834395842  0.4495398171711716  0.1505539251462515
  0.8610155723697335  0.5585461065564096  0.1503896321793766
  0.8610155723697335  0.4414538934435909  0.8496103678206240
  0.1425890834395842  0.5504601828288292  0.8494460748537480
  0.1535735299774526  0.1416643344464044  0.4493638576938725
  0.1535735299774526  0.8583356655535954  0.5506361423061270
  0.8523620372544433  0.8601950951740924  0.4417148832514333
  0.8523620372544433  0.1398049048259073  0.5582851167485667
  0.4552972419854925  0.1382851233265840  0.1282700794663537
  0.5615583382785693  0.1633227825342176  0.8463559883268701
  0.4552972419854925  0.8617148766734166  0.8717299205336466
  0.5615583382785693  0.8366772174657825  0.1536440116731296
  0.9438136565783678  0.6409510636783496  0.6517341837706214
  0.0586084787778129  0.3594920177118584  0.6497186095469955
  0.9438136565783678  0.3590489363216497  0.3482658162293783
  0.0586084787778129  0.6405079822881417  0.3502813904530045
  0.6418996410195859  0.6488446220209074  0.9410048540858448
  0.3608882515839369  0.6526031784258782  0.0552944411765311
  0.3608882515839369  0.3473968215741222  0.9447055588234688
  0.6418996410195859  0.3511553779790929  0.0589951459141551
  0.6530432913922883  0.9396358808765947  0.6389889953851714
  0.6530432913922883  0.0603641191234054  0.3610110046148283
  0.3523367947915650  0.9457280449056868  0.3576922951142107
  0.3523367947915650  0.0542719550943133  0.6423077048857893
  0.8100970689691771  0.8060096722141659  0.1942489000742904
  0.8100970689691771  0.1939903277858337  0.8057510999257100
  0.6837099265400918  0.6820586385782371  0.6830963372751294
  0.3227812447722400  0.3190755720439117  0.6796636919885499
  0.6837099265400918  0.3179413614217627  0.3169036627248710
  0.3227812447722400  0.6809244279560877  0.3203363080114495
  0.2541146196697750  0.5000000000000000  0.0000000000000000
  0.7526187398246128  0.5000000000000000  0.0000000000000000
  0.0021724506375124  0.2503411778713109  0.5001045328323842
  0.0021724506375124  0.7496588221286886  0.4998954671676157
  0.5071671284298253 -0.0034814209707642  0.2500553703606754
  0.5071671284298253  0.0034814209707642  0.7499446296393248
  0.2540105736260606  0.0000000000000000  0.5000000000000000
  0.7530520280521060  0.0000000000000000  0.5000000000000000
  0.5060687768833368  0.2500127103170503 -0.0045854734606774
  0.5060687768833368  0.7499872896829495  0.0045854734606774
  0.0018159233410648  0.5013334885704002  0.2500785552778940
  0.0018159233410648  0.4986665114295996  0.7499214447221061
 -0.0818688601478270  0.0000000000000000  0.0000000000000000
  0.5050285199215480  0.5000000000000000  0.5000000000000000
  0.1607237525047822  0.1569174689131662  0.1563974757105982
  0.1607237525047822  0.8430825310868345  0.8436025242894015
 
  0.00000000E+00  0.00000000E+00  0.00000000E+00
  0.00000000E+00  0.00000000E+00  0.00000000E+00
  0.00000000E+00  0.00000000E+00  0.00000000E+00
  0.00000000E+00  0.00000000E+00  0.00000000E+00
  0.00000000E+00  0.00000000E+00  0.00000000E+00
  0.00000000E+00  0.00000000E+00  0.00000000E+00
  0.00000000E+00  0.00000000E+00  0.00000000E+00
  0.00000000E+00  0.00000000E+00  0.00000000E+00
  0.00000000E+00  0.00000000E+00  0.00000000E+00
  0.00000000E+00  0.00000000E+00  0.00000000E+00
  0.00000000E+00  0.00000000E+00  0.00000000E+00
  0.00000000E+00  0.00000000E+00  0.00000000E+00
  0.00000000E+00  0.00000000E+00  0.00000000E+00
  0.00000000E+00  0.00000000E+00  0.00000000E+00
  0.00000000E+00  0.00000000E+00  0.00000000E+00
  0.00000000E+00  0.00000000E+00  0.00000000E+00
  0.00000000E+00  0.00000000E+00  0.00000000E+00
  0.00000000E+00  0.00000000E+00  0.00000000E+00
  0.00000000E+00  0.00000000E+00  0.00000000E+00
  0.00000000E+00  0.00000000E+00  0.00000000E+00
  0.00000000E+00  0.00000000E+00  0.00000000E+00
  0.00000000E+00  0.00000000E+00  0.00000000E+00
  0.00000000E+00  0.00000000E+00  0.00000000E+00
  0.00000000E+00  0.00000000E+00  0.00000000E+00
  0.00000000E+00  0.00000000E+00  0.00000000E+00
  0.00000000E+00  0.00000000E+00  0.00000000E+00
  0.00000000E+00  0.00000000E+00  0.00000000E+00
  0.00000000E+00  0.00000000E+00  0.00000000E+00
  0.00000000E+00  0.00000000E+00  0.00000000E+00
  0.00000000E+00  0.00000000E+00  0.00000000E+00
  0.00000000E+00  0.00000000E+00  0.00000000E+00
  0.00000000E+00  0.00000000E+00  0.00000000E+00
  0.00000000E+00  0.00000000E+00  0.00000000E+00
  0.00000000E+00  0.00000000E+00  0.00000000E+00
  0.00000000E+00  0.00000000E+00  0.00000000E+00
  0.00000000E+00  0.00000000E+00  0.00000000E+00
  0.00000000E+00  0.00000000E+00  0.00000000E+00
  0.00000000E+00  0.00000000E+00  0.00000000E+00
  0.00000000E+00  0.00000000E+00  0.00000000E+00
  0.00000000E+00  0.00000000E+00  0.00000000E+00
  0.00000000E+00  0.00000000E+00  0.00000000E+00
  0.00000000E+00  0.00000000E+00  0.00000000E+00
  0.00000000E+00  0.00000000E+00  0.00000000E+00
  0.00000000E+00  0.00000000E+00  0.00000000E+00
  0.00000000E+00  0.00000000E+00  0.00000000E+00
  0.00000000E+00  0.00000000E+00  0.00000000E+00
