Sodilite                                
   1.00000000000000     
     9.1729599924306218    0.0027611428341273   -0.0255982410643625
     0.0027635963768723    9.1741715366401824    0.0240357666213722
    -0.0256023727118012    0.0240367598137119    9.1830371512419671
   O    Na   Al   Si   Cl   K 
    24     4     6     6     2     4
Direct
  0.1538706269286293  0.4581198429795181  0.1585350285130966
  0.8661694371235172  0.5347992851407199  0.1458921529755440
  0.8521550985177546  0.4476147836466829  0.8395738619271307
  0.1354222580519220  0.5387415539814074  0.8559188430875941
  0.1465135846015886  0.1316010988422866  0.4611625705451993
  0.1636593491066996  0.8465415304065670  0.5429331409646080
  0.8607191367159959  0.8638530897485041  0.4625047368983144
  0.8410655735642837  0.1490876754386828  0.5485000239122944
  0.4654346330275457  0.1431540098172893  0.1347266200169515
  0.5508594287105953  0.1562886153743685  0.8485734240079796
  0.4614690349667988  0.8531379730510420  0.8647078815025742
  0.5432101612050702  0.8371075888005203  0.1496297102739404
  0.9536681873505937  0.6367749931109180  0.6505962556019343
  0.0527174260394922  0.3536672967413062  0.6540266943239400
  0.9637775780144472  0.3580320322814720  0.3519444715782757
  0.0466310048852997  0.6452319556978764  0.3440774006844419
  0.6515169690225946  0.6554194302617483  0.9520346400403463
  0.3645629110111110  0.6446030369274229  0.0415231014602323
  0.3528494339453175  0.3374039245283524  0.9502282018168371
  0.6363076744861388  0.3537175541103483  0.0403709742920537
  0.6567706818777408  0.9465259594764805  0.6450054534156681
  0.6529575456925657  0.0371729518611302  0.3612728191968609
  0.3466456341298483  0.9542818359034138  0.3531537981822174
  0.3539015177846071  0.0453831038239151  0.6394770501528342
  0.7952379574523261  0.2036462705503841  0.7945567694453879
  0.6906752294688487  0.6909374220031540  0.6938463215528128
  0.3087196293945479  0.3081343256738610  0.6923643237302685
  0.3131894790939843  0.6869601295593593  0.3181181644993363
  0.2536655286870180  0.4941725718114289 -0.0000373292360204
  0.7531475217419079  0.4970934114528163 -0.0043690959132975
  0.0013195149387581  0.2468857420069306  0.5038613362882214
  0.0061129368185180  0.7461042445634231  0.5016039343791501
  0.5034001157191274 -0.0059930921057119  0.2499733553583862
  0.5055861469856531 -0.0013793844435781  0.7492063601074175
  0.2535001816276132 -0.0056127833199008  0.5000811074194957
  0.7532961875138360 -0.0013501908110569  0.5043302437479847
  0.5021890354107935  0.2469700642424767 -0.0058649652559355
  0.5055446764818344  0.7466513271901198  0.0010951923998616
  0.0071459900674379  0.4980176821090178  0.2502431365083915
 -0.0003191128183176  0.4939797037778874  0.7498448542025369
 -0.0377181165853181  0.0375270988828454 -0.0414929816413830
  0.4714265523478870  0.5282455717137209  0.5356707752857688
  0.1713415763593604  0.1666761224957949  0.1701426949168917
  0.8343202746245275  0.8290326754655695  0.1713203661208343
  0.1726539796310177  0.8270712195298405  0.8318625631087294
  0.6627098282784792  0.3379687456996440  0.3372740176042897
 
  0.00000000E+00  0.00000000E+00  0.00000000E+00
  0.00000000E+00  0.00000000E+00  0.00000000E+00
  0.00000000E+00  0.00000000E+00  0.00000000E+00
  0.00000000E+00  0.00000000E+00  0.00000000E+00
  0.00000000E+00  0.00000000E+00  0.00000000E+00
  0.00000000E+00  0.00000000E+00  0.00000000E+00
  0.00000000E+00  0.00000000E+00  0.00000000E+00
  0.00000000E+00  0.00000000E+00  0.00000000E+00
  0.00000000E+00  0.00000000E+00  0.00000000E+00
  0.00000000E+00  0.00000000E+00  0.00000000E+00
  0.00000000E+00  0.00000000E+00  0.00000000E+00
  0.00000000E+00  0.00000000E+00  0.00000000E+00
  0.00000000E+00  0.00000000E+00  0.00000000E+00
  0.00000000E+00  0.00000000E+00  0.00000000E+00
  0.00000000E+00  0.00000000E+00  0.00000000E+00
  0.00000000E+00  0.00000000E+00  0.00000000E+00
  0.00000000E+00  0.00000000E+00  0.00000000E+00
  0.00000000E+00  0.00000000E+00  0.00000000E+00
  0.00000000E+00  0.00000000E+00  0.00000000E+00
  0.00000000E+00  0.00000000E+00  0.00000000E+00
  0.00000000E+00  0.00000000E+00  0.00000000E+00
  0.00000000E+00  0.00000000E+00  0.00000000E+00
  0.00000000E+00  0.00000000E+00  0.00000000E+00
  0.00000000E+00  0.00000000E+00  0.00000000E+00
  0.00000000E+00  0.00000000E+00  0.00000000E+00
  0.00000000E+00  0.00000000E+00  0.00000000E+00
  0.00000000E+00  0.00000000E+00  0.00000000E+00
  0.00000000E+00  0.00000000E+00  0.00000000E+00
  0.00000000E+00  0.00000000E+00  0.00000000E+00
  0.00000000E+00  0.00000000E+00  0.00000000E+00
  0.00000000E+00  0.00000000E+00  0.00000000E+00
  0.00000000E+00  0.00000000E+00  0.00000000E+00
  0.00000000E+00  0.00000000E+00  0.00000000E+00
  0.00000000E+00  0.00000000E+00  0.00000000E+00
  0.00000000E+00  0.00000000E+00  0.00000000E+00
  0.00000000E+00  0.00000000E+00  0.00000000E+00
  0.00000000E+00  0.00000000E+00  0.00000000E+00
  0.00000000E+00  0.00000000E+00  0.00000000E+00
  0.00000000E+00  0.00000000E+00  0.00000000E+00
  0.00000000E+00  0.00000000E+00  0.00000000E+00
  0.00000000E+00  0.00000000E+00  0.00000000E+00
  0.00000000E+00  0.00000000E+00  0.00000000E+00
  0.00000000E+00  0.00000000E+00  0.00000000E+00
  0.00000000E+00  0.00000000E+00  0.00000000E+00
  0.00000000E+00  0.00000000E+00  0.00000000E+00
  0.00000000E+00  0.00000000E+00  0.00000000E+00
