Sodilite                                
   1.00000000000000     
     9.1490877486319988    0.0255642357301798   -0.0255642357301798
     0.0255763095342487    9.1606976622576521    0.0064602037664163
    -0.0255763095342487    0.0064602037664163    9.1606976622576521
   O    Na   Al   Si   Cl   K 
    24     4     6     6     2     4
Direct
  0.1525235894024569  0.4437852017665225  0.1662995019324083
  0.8708774928800623  0.5401879718160532  0.1425087514945909
  0.8446556893446870  0.4493455999160788  0.8400874350513516
  0.1322339129581057  0.5336472315085840  0.8620553648944045
  0.1545310005576865  0.1425755559632994  0.4500096689072217
  0.1485524731236239  0.8574942227790715  0.5411528784189260
  0.8448011376385787  0.8541406727457778  0.4602980985937001
  0.8503200905063268  0.1390305002349943  0.5517603430043968
  0.4474617526713396  0.1479366033608800  0.1432049611947366
  0.5478131900074231  0.1515510140228295  0.8601854543570840
  0.4603794040101216  0.8437163712621073  0.8597982809942118
  0.5429307585651915  0.8469305101409973  0.1453111611550749
  0.9603794040101216  0.6402017190057882  0.6562836287378927
  0.0429307585651920  0.3546888388449251  0.6530694898590027
  0.9474617526713397  0.3567950388052635  0.3520633966391201
  0.0478131900074229  0.6398145456429160  0.3484489859771711
  0.6322339129581058  0.6379446351055955  0.9663527684914160
  0.3446556893446873  0.6599125649486484  0.0506544000839211
  0.3708774928800623  0.3574912485054088  0.9598120281839468
  0.6525235894024567  0.3337004980675916  0.0562147982334776
  0.6485524731236236  0.9588471215810740  0.6425057772209285
  0.6545310005576866  0.0499903310927782  0.3574244440367005
  0.3503200905063266  0.9482396569956032  0.3609694997650056
  0.3448011376385788  0.0397019014062998  0.6458593272542222
  0.1976196736612808  0.1945878480038140  0.1971647426433835
  0.8075060866315945  0.1928916278627485  0.8081014053721191
  0.6976196736612807  0.3028352573566166  0.3054121519961859
  0.3075060866315946  0.6918985946278809  0.3071083721372514
  0.2498545574619146  0.4967725789500548  0.0097062419553866
  0.7498545574619147  0.4902937580446134  0.0032274210499453
  0.0000345347644563  0.2469066354495480  0.5014697597043637
 -0.0008556647735721  0.7458783100901771  0.5014849656787174
  0.5000345347644561 -0.0014697597043638  0.2530933645504522
  0.4991443352264279 -0.0014849656787174  0.7541216899098229
  0.2496194682420501 -0.0025599063283766  0.5001724122600875
  0.7496194682420505 -0.0001724122600878  0.5025599063283767
  0.5039289664175416  0.2472602853269384  0.0057572183852769
  0.4956461148220673  0.7461235233497449  0.0062703038712696
  0.0039289664175416  0.4942427816147233  0.2527397146730615
 -0.0043538851779327  0.4937296961287303  0.7538764766502551
  0.0015774525294418  0.0718635792879472  0.0043526532502782
  0.5015774525294417  0.4956473467497221  0.4281364207120530
  0.8360674683039115  0.8341832355534522  0.1647137231462279
  0.1619208502737093  0.8345273958684479  0.8369112426664725
  0.6619208502737094  0.6630887573335275  0.6654726041315521
  0.3360674683039115  0.3352862768537719  0.6658167644465478
 
  0.00000000E+00  0.00000000E+00  0.00000000E+00
  0.00000000E+00  0.00000000E+00  0.00000000E+00
  0.00000000E+00  0.00000000E+00  0.00000000E+00
  0.00000000E+00  0.00000000E+00  0.00000000E+00
  0.00000000E+00  0.00000000E+00  0.00000000E+00
  0.00000000E+00  0.00000000E+00  0.00000000E+00
  0.00000000E+00  0.00000000E+00  0.00000000E+00
  0.00000000E+00  0.00000000E+00  0.00000000E+00
  0.00000000E+00  0.00000000E+00  0.00000000E+00
  0.00000000E+00  0.00000000E+00  0.00000000E+00
  0.00000000E+00  0.00000000E+00  0.00000000E+00
  0.00000000E+00  0.00000000E+00  0.00000000E+00
  0.00000000E+00  0.00000000E+00  0.00000000E+00
  0.00000000E+00  0.00000000E+00  0.00000000E+00
  0.00000000E+00  0.00000000E+00  0.00000000E+00
  0.00000000E+00  0.00000000E+00  0.00000000E+00
  0.00000000E+00  0.00000000E+00  0.00000000E+00
  0.00000000E+00  0.00000000E+00  0.00000000E+00
  0.00000000E+00  0.00000000E+00  0.00000000E+00
  0.00000000E+00  0.00000000E+00  0.00000000E+00
  0.00000000E+00  0.00000000E+00  0.00000000E+00
  0.00000000E+00  0.00000000E+00  0.00000000E+00
  0.00000000E+00  0.00000000E+00  0.00000000E+00
  0.00000000E+00  0.00000000E+00  0.00000000E+00
  0.00000000E+00  0.00000000E+00  0.00000000E+00
  0.00000000E+00  0.00000000E+00  0.00000000E+00
  0.00000000E+00  0.00000000E+00  0.00000000E+00
  0.00000000E+00  0.00000000E+00  0.00000000E+00
  0.00000000E+00  0.00000000E+00  0.00000000E+00
  0.00000000E+00  0.00000000E+00  0.00000000E+00
  0.00000000E+00  0.00000000E+00  0.00000000E+00
  0.00000000E+00  0.00000000E+00  0.00000000E+00
  0.00000000E+00  0.00000000E+00  0.00000000E+00
  0.00000000E+00  0.00000000E+00  0.00000000E+00
  0.00000000E+00  0.00000000E+00  0.00000000E+00
  0.00000000E+00  0.00000000E+00  0.00000000E+00
  0.00000000E+00  0.00000000E+00  0.00000000E+00
  0.00000000E+00  0.00000000E+00  0.00000000E+00
  0.00000000E+00  0.00000000E+00  0.00000000E+00
  0.00000000E+00  0.00000000E+00  0.00000000E+00
  0.00000000E+00  0.00000000E+00  0.00000000E+00
  0.00000000E+00  0.00000000E+00  0.00000000E+00
  0.00000000E+00  0.00000000E+00  0.00000000E+00
  0.00000000E+00  0.00000000E+00  0.00000000E+00
  0.00000000E+00  0.00000000E+00  0.00000000E+00
  0.00000000E+00  0.00000000E+00  0.00000000E+00
