Sodilite                                
   1.00000000000000     
     9.1328589284819159    0.0139209226988350   -0.0139209234243866
     0.0139209234243866    9.1328589284819159    0.0139209226988350
    -0.0139209226988350    0.0139209234243866    9.1328589284819159
   O    Na   Al   Si   Cl   K 
    24     5     6     6     2     3
Direct
  0.1516473566201536  0.4538049167091006  0.1613402292116174
  0.8664830885548540  0.5407304753516133  0.1451425522406522
  0.8508711958055333  0.4460602695804262  0.8415160338413143
  0.1343143414752411  0.5408639840094622  0.8581604633702129
  0.1451425522406522  0.1335169114451464  0.4592695246483864
  0.1613402292116174  0.8483526433798473  0.5461950832908996
  0.8581604633702129  0.8656856585247588  0.4591360159905380
  0.8415160338413143  0.1491288041944669  0.5539397304195736
  0.4591360159905380  0.1418395366297869  0.1343143414752411
  0.5539397304195736  0.1584839661586853  0.8508711958055333
  0.4592695246483864  0.8548574477593480  0.8664830885548540
  0.5461950832908996  0.8386597707883826  0.1516473566201536
  0.9494989254441186  0.6419412025941360  0.6558400154916488
  0.0542349310646993  0.3600029797814071  0.6502921148056267
  0.9504231329164081  0.3551696088928903  0.3490859537319776
  0.0473438652298782  0.6409608546372220  0.3500311020977148
  0.6448303911071096  0.6509140462680224  0.9504231329164081
  0.3590391453627776  0.6499688979022851  0.0473438652298782
  0.3580587974058642  0.3441599845083509  0.9494989254441186
  0.6399970202185926  0.3497078851943736  0.0542349310646993
  0.6502921148056267  0.9457650689353007  0.6399970202185926
  0.6558400154916488  0.0505010745558810  0.3580587974058642
  0.3500311020977148  0.9526561347701218  0.3590391453627776
  0.3490859537319776  0.0495768670835920  0.6448303911071096
  0.7939258148152052  0.2060741851847945  0.7939258148152052
  0.6866027422136159  0.6854460529107793  0.6875962796213074
  0.3145539470892202  0.3124037203786930  0.6866027422136159
  0.6875962796213074  0.3133972577863837  0.3145539470892202
  0.3198897333658215  0.6801102666341784  0.3198897333658215
  0.2521855781525990  0.4961367540443483  0.0033981250320346
  0.7510118285625319  0.4962793215172484 -0.0012851811080916
 -0.0012851811080916  0.2489881714374683  0.5037206784827521
  0.0033981250320346  0.7478144218474009  0.5038632459556516
  0.5038632459556516 -0.0033981250320346  0.2521855781525990
  0.5037206784827521  0.0012851811080916  0.7510118285625319
  0.2520250677041417 -0.0036287503537615  0.5029994212862329
  0.7515736931112719  0.0020716698889548  0.5033471659722000
  0.5033471659722000  0.2484263068887283 -0.0020716698889548
  0.5029994212862329  0.7479749322958585  0.0036287503537615
  0.0036287503537615  0.4970005787137670  0.2520250677041417
 -0.0020716698889548  0.4966528340278004  0.7515736931112719
 -0.0415315503255881  0.0415315503255881 -0.0415315503255881
  0.5028085783573283  0.4971914216426722  0.5028085783573283
  0.1696886086417999  0.1640900761165763  0.1694682083763431
  0.8359099238834237  0.8305317916236565  0.1696886086417999
  0.1694682083763431  0.8303113913582001  0.8359099238834237
 
  0.00000000E+00  0.00000000E+00  0.00000000E+00
  0.00000000E+00  0.00000000E+00  0.00000000E+00
  0.00000000E+00  0.00000000E+00  0.00000000E+00
  0.00000000E+00  0.00000000E+00  0.00000000E+00
  0.00000000E+00  0.00000000E+00  0.00000000E+00
  0.00000000E+00  0.00000000E+00  0.00000000E+00
  0.00000000E+00  0.00000000E+00  0.00000000E+00
  0.00000000E+00  0.00000000E+00  0.00000000E+00
  0.00000000E+00  0.00000000E+00  0.00000000E+00
  0.00000000E+00  0.00000000E+00  0.00000000E+00
  0.00000000E+00  0.00000000E+00  0.00000000E+00
  0.00000000E+00  0.00000000E+00  0.00000000E+00
  0.00000000E+00  0.00000000E+00  0.00000000E+00
  0.00000000E+00  0.00000000E+00  0.00000000E+00
  0.00000000E+00  0.00000000E+00  0.00000000E+00
  0.00000000E+00  0.00000000E+00  0.00000000E+00
  0.00000000E+00  0.00000000E+00  0.00000000E+00
  0.00000000E+00  0.00000000E+00  0.00000000E+00
  0.00000000E+00  0.00000000E+00  0.00000000E+00
  0.00000000E+00  0.00000000E+00  0.00000000E+00
  0.00000000E+00  0.00000000E+00  0.00000000E+00
  0.00000000E+00  0.00000000E+00  0.00000000E+00
  0.00000000E+00  0.00000000E+00  0.00000000E+00
  0.00000000E+00  0.00000000E+00  0.00000000E+00
  0.00000000E+00  0.00000000E+00  0.00000000E+00
  0.00000000E+00  0.00000000E+00  0.00000000E+00
  0.00000000E+00  0.00000000E+00  0.00000000E+00
  0.00000000E+00  0.00000000E+00  0.00000000E+00
  0.00000000E+00  0.00000000E+00  0.00000000E+00
  0.00000000E+00  0.00000000E+00  0.00000000E+00
  0.00000000E+00  0.00000000E+00  0.00000000E+00
  0.00000000E+00  0.00000000E+00  0.00000000E+00
  0.00000000E+00  0.00000000E+00  0.00000000E+00
  0.00000000E+00  0.00000000E+00  0.00000000E+00
  0.00000000E+00  0.00000000E+00  0.00000000E+00
  0.00000000E+00  0.00000000E+00  0.00000000E+00
  0.00000000E+00  0.00000000E+00  0.00000000E+00
  0.00000000E+00  0.00000000E+00  0.00000000E+00
  0.00000000E+00  0.00000000E+00  0.00000000E+00
  0.00000000E+00  0.00000000E+00  0.00000000E+00
  0.00000000E+00  0.00000000E+00  0.00000000E+00
  0.00000000E+00  0.00000000E+00  0.00000000E+00
  0.00000000E+00  0.00000000E+00  0.00000000E+00
  0.00000000E+00  0.00000000E+00  0.00000000E+00
  0.00000000E+00  0.00000000E+00  0.00000000E+00
  0.00000000E+00  0.00000000E+00  0.00000000E+00
