Sodilite                                
   1.00000000000000     
     9.0451128446332110   -0.0321584096690863    0.0000000000000000
    -0.0321674139439876    9.0480697590457844    0.0000000000000000
     0.0000000000000000    0.0000000000000000    9.0537660178139134
   O    Na   Al   Si   Cl   K 
    24     6     6     6     2     2
Direct
  0.1423044986799317  0.4457335481918981  0.1476603127519052
  0.8576955013200682  0.5542664518081019  0.1476603127519052
  0.8610105283395764  0.4396352187121473  0.8469586939877081
  0.1389894716604240  0.5603647812878526  0.8469586939877081
  0.1497209971356846  0.1405123906022507  0.4413961488196299
  0.1517249606779653  0.8590571935449539  0.5561830263394946
  0.8502790028643156  0.8594876093977494  0.4413961488196299
  0.8482750393220350  0.1409428064550460  0.5561830263394946
  0.4447081802665804  0.1526023443470280  0.1391123385938050
  0.5589964262832745  0.1488445896592504  0.8581008829641187
  0.4410035737167261  0.8511554103407494  0.8581008829641187
  0.5552918197334199  0.8473976556529715  0.1391123385938050
  0.9417139185671138  0.6398076570831767  0.6476384577029294
  0.0582860814328858  0.3601923429168237  0.6476384577029294
  0.9493655328125208  0.3583389742018667  0.3464288010033693
  0.0506344671874795  0.6416610257981332  0.3464288010033693
  0.6536432452147449  0.6633172391577515  0.9384424885798253
  0.3717308157170870  0.6382825922154799  0.0447018121221926
  0.3463567547852552  0.3366827608422489  0.9384424885798253
  0.6282691842829126  0.3617174077845194  0.0447018121221926
  0.6503904890463917  0.9414541696907341  0.6389881598152537
  0.6505533785513952  0.0504635608737810  0.3574129170745118
  0.3494466214486051  0.9495364391262195  0.3574129170745118
  0.3496095109536082  0.0585458303092659  0.6389881598152537
  0.1796679638914793  0.1809280360733693  0.1772149539275103
  0.8203320361085205  0.8190719639266303  0.1772149539275103
  0.8169012960515343  0.1820605701024618  0.8162841427011240
  0.1830987039484654  0.8179394298975375  0.8162841427011240
  0.6942455454994937  0.6939884732775142  0.6899072420034474
  0.3057544545005062  0.3060115267224854  0.6899072420034474
  0.2499455681644167  0.4965225025728077 -0.0071694896260985
  0.7500544318355834  0.5034774974271924 -0.0071694896260985
  0.0001040468067474  0.2496587270551404  0.4978265780466098
 -0.0001040468067474  0.7503412729448594  0.4978265780466098
  0.5000000000000000  0.0000000000000000  0.2458854204143245
  0.5000000000000000  0.0000000000000000  0.7473826617623475
  0.2499221201789611  0.0013384979024347  0.4981822833215033
  0.7500778798210389 -0.0013384979024347  0.4981822833215033
  0.4954119518748538  0.2499880394578775 -0.0060688476895660
  0.5045880481251468  0.7500119605421225 -0.0060688476895660
  0.0000000000000000  0.5000000000000000  0.2459901354979538
  0.0000000000000000  0.5000000000000000  0.7469458145913822
  0.0000000000000000  0.0000000000000000 -0.0050231796075835
  0.5000000000000000  0.5000000000000000  0.5818675400576682
  0.6564002727341648  0.3430804144078666  0.3392749012026775
  0.3435997272658353  0.6569195855921337  0.3392749012026775
 
  0.00000000E+00  0.00000000E+00  0.00000000E+00
  0.00000000E+00  0.00000000E+00  0.00000000E+00
  0.00000000E+00  0.00000000E+00  0.00000000E+00
  0.00000000E+00  0.00000000E+00  0.00000000E+00
  0.00000000E+00  0.00000000E+00  0.00000000E+00
  0.00000000E+00  0.00000000E+00  0.00000000E+00
  0.00000000E+00  0.00000000E+00  0.00000000E+00
  0.00000000E+00  0.00000000E+00  0.00000000E+00
  0.00000000E+00  0.00000000E+00  0.00000000E+00
  0.00000000E+00  0.00000000E+00  0.00000000E+00
  0.00000000E+00  0.00000000E+00  0.00000000E+00
  0.00000000E+00  0.00000000E+00  0.00000000E+00
  0.00000000E+00  0.00000000E+00  0.00000000E+00
  0.00000000E+00  0.00000000E+00  0.00000000E+00
  0.00000000E+00  0.00000000E+00  0.00000000E+00
  0.00000000E+00  0.00000000E+00  0.00000000E+00
  0.00000000E+00  0.00000000E+00  0.00000000E+00
  0.00000000E+00  0.00000000E+00  0.00000000E+00
  0.00000000E+00  0.00000000E+00  0.00000000E+00
  0.00000000E+00  0.00000000E+00  0.00000000E+00
  0.00000000E+00  0.00000000E+00  0.00000000E+00
  0.00000000E+00  0.00000000E+00  0.00000000E+00
  0.00000000E+00  0.00000000E+00  0.00000000E+00
  0.00000000E+00  0.00000000E+00  0.00000000E+00
  0.00000000E+00  0.00000000E+00  0.00000000E+00
  0.00000000E+00  0.00000000E+00  0.00000000E+00
  0.00000000E+00  0.00000000E+00  0.00000000E+00
  0.00000000E+00  0.00000000E+00  0.00000000E+00
  0.00000000E+00  0.00000000E+00  0.00000000E+00
  0.00000000E+00  0.00000000E+00  0.00000000E+00
  0.00000000E+00  0.00000000E+00  0.00000000E+00
  0.00000000E+00  0.00000000E+00  0.00000000E+00
  0.00000000E+00  0.00000000E+00  0.00000000E+00
  0.00000000E+00  0.00000000E+00  0.00000000E+00
  0.00000000E+00  0.00000000E+00  0.00000000E+00
  0.00000000E+00  0.00000000E+00  0.00000000E+00
  0.00000000E+00  0.00000000E+00  0.00000000E+00
  0.00000000E+00  0.00000000E+00  0.00000000E+00
  0.00000000E+00  0.00000000E+00  0.00000000E+00
  0.00000000E+00  0.00000000E+00  0.00000000E+00
  0.00000000E+00  0.00000000E+00  0.00000000E+00
  0.00000000E+00  0.00000000E+00  0.00000000E+00
  0.00000000E+00  0.00000000E+00  0.00000000E+00
  0.00000000E+00  0.00000000E+00  0.00000000E+00
  0.00000000E+00  0.00000000E+00  0.00000000E+00
  0.00000000E+00  0.00000000E+00  0.00000000E+00
