Sodilite                                
   1.00000000000000     
     9.2317189429901738    0.0057504064537637   -0.0062094307144814
     0.0057395276656851    9.2124662150088064   -0.0130192247015931
    -0.0061900129454965   -0.0130164594662451    9.2112033060837106
   O    Na   Al   Si   Cl   K 
    24     3     6     6     2     5
Direct
  0.1398772764218036  0.4510550032654727  0.1514291520234466
  0.8553773071061361  0.5344237417701062  0.1572026017013103
  0.8571480048362189  0.4681737745412128  0.8506529801277408
  0.1450616334126195  0.5438587460742673  0.8474607729840672
  0.1549882694422038  0.1427474625792649  0.4559457390544187
  0.1486821077324877  0.8588596941383577  0.5482338618930995
  0.8453918485151223  0.8525862254075800  0.4657322034524677
  0.8475416479280343  0.1411544001577465  0.5327158127083822
  0.4540946967171663  0.1621862808792481  0.1571748522214715
  0.5287269025514113  0.1401435135753721  0.8692275802138710
  0.4530140735705684  0.8326018486432444  0.8466892669598136
  0.5353467142382355  0.8598192048735018  0.1303271755223113
  0.9652910716097826  0.6336435642030822  0.6447350802230839
  0.0363376089485225  0.3470707784756323  0.6635622681633031
  0.9655716830268318  0.3649366645441355  0.3590701220764429
  0.0457675786745240  0.6506674398610426  0.3388997783758330
  0.6347441528314829  0.6462735948249290  0.9685826762581229
  0.3487575676578984  0.6569345113373923  0.0485781225870141
  0.3617799945020944  0.3537075487990580  0.9646046313060079
  0.6477521708130046  0.3382784679232475  0.0360869201424871
  0.6568900925703761  0.9651189081035201  0.6521278920665863
  0.6448468351967203  0.0305542580331046  0.3626772814088590
  0.3389823312811885  0.9500830919273063  0.3521394840090751
  0.3531957517926416  0.0364551029750145  0.6357474680843753
  0.1991324632934445  0.1971708227094487  0.1970911505467522
  0.1980555175648732  0.8020034813556516  0.8025616786143248
  0.2922946624460329  0.7065564180156310  0.2924781758708246
  0.2482231586810322  0.5008855078304615  0.0032406966420812
  0.7479737877356087  0.4972352412979659  0.0039566661918979
  0.0020671323385777  0.2477260258721381  0.5033559312478652
  0.0016495341031100  0.7483547445999680  0.4987559631844006
  0.4931185065752038 -0.0004488590559479  0.2514495983480380
  0.4967321340568896 -0.0065094738464626  0.7522696603652830
  0.2487007557249994 -0.0033294228390986  0.4984643402414402
  0.7482994316371000 -0.0031779882118453  0.5030902237180245
  0.4972739188045054  0.2479644205229712  0.0067090293966353
  0.4927979826242440  0.7485361791157900 -0.0005029997848029
  0.0018570206614221  0.5003424748884435  0.2518432113486049
  0.0013517398173198  0.4979038523506979  0.7521010946806003
  0.0698657339175236 -0.0023124505779197  0.0020667216987470
  0.4579794011683729  0.5381323759442808  0.4616445599118159
  0.8309789112599575  0.8323146816830428  0.1676966855399847
  0.8338570954858091  0.1654961924964728  0.8351604266099154
  0.6717372905501189  0.6692565710776837  0.6715844137587473
  0.3287563066893346  0.3266364712602350  0.6737584005597040
  0.6721301934874436  0.3279289065975539  0.3316206477455240
 
  0.00000000E+00  0.00000000E+00  0.00000000E+00
  0.00000000E+00  0.00000000E+00  0.00000000E+00
  0.00000000E+00  0.00000000E+00  0.00000000E+00
  0.00000000E+00  0.00000000E+00  0.00000000E+00
  0.00000000E+00  0.00000000E+00  0.00000000E+00
  0.00000000E+00  0.00000000E+00  0.00000000E+00
  0.00000000E+00  0.00000000E+00  0.00000000E+00
  0.00000000E+00  0.00000000E+00  0.00000000E+00
  0.00000000E+00  0.00000000E+00  0.00000000E+00
  0.00000000E+00  0.00000000E+00  0.00000000E+00
  0.00000000E+00  0.00000000E+00  0.00000000E+00
  0.00000000E+00  0.00000000E+00  0.00000000E+00
  0.00000000E+00  0.00000000E+00  0.00000000E+00
  0.00000000E+00  0.00000000E+00  0.00000000E+00
  0.00000000E+00  0.00000000E+00  0.00000000E+00
  0.00000000E+00  0.00000000E+00  0.00000000E+00
  0.00000000E+00  0.00000000E+00  0.00000000E+00
  0.00000000E+00  0.00000000E+00  0.00000000E+00
  0.00000000E+00  0.00000000E+00  0.00000000E+00
  0.00000000E+00  0.00000000E+00  0.00000000E+00
  0.00000000E+00  0.00000000E+00  0.00000000E+00
  0.00000000E+00  0.00000000E+00  0.00000000E+00
  0.00000000E+00  0.00000000E+00  0.00000000E+00
  0.00000000E+00  0.00000000E+00  0.00000000E+00
  0.00000000E+00  0.00000000E+00  0.00000000E+00
  0.00000000E+00  0.00000000E+00  0.00000000E+00
  0.00000000E+00  0.00000000E+00  0.00000000E+00
  0.00000000E+00  0.00000000E+00  0.00000000E+00
  0.00000000E+00  0.00000000E+00  0.00000000E+00
  0.00000000E+00  0.00000000E+00  0.00000000E+00
  0.00000000E+00  0.00000000E+00  0.00000000E+00
  0.00000000E+00  0.00000000E+00  0.00000000E+00
  0.00000000E+00  0.00000000E+00  0.00000000E+00
  0.00000000E+00  0.00000000E+00  0.00000000E+00
  0.00000000E+00  0.00000000E+00  0.00000000E+00
  0.00000000E+00  0.00000000E+00  0.00000000E+00
  0.00000000E+00  0.00000000E+00  0.00000000E+00
  0.00000000E+00  0.00000000E+00  0.00000000E+00
  0.00000000E+00  0.00000000E+00  0.00000000E+00
  0.00000000E+00  0.00000000E+00  0.00000000E+00
  0.00000000E+00  0.00000000E+00  0.00000000E+00
  0.00000000E+00  0.00000000E+00  0.00000000E+00
  0.00000000E+00  0.00000000E+00  0.00000000E+00
  0.00000000E+00  0.00000000E+00  0.00000000E+00
  0.00000000E+00  0.00000000E+00  0.00000000E+00
  0.00000000E+00  0.00000000E+00  0.00000000E+00
