Sodilite                                
   1.00000000000000     
     9.1711618276871576    0.0021898656886416    0.0021898690590262
     0.0021898690590262    9.1711618276871576    0.0021898656886416
     0.0021898656886416    0.0021898690590262    9.1711618276871576
   O    Na   Al   Si   Cl   K 
    24     4     6     6     2     4
Direct
  0.1496606729625170  0.4484611267701737  0.1595220699925361
  0.8661125399567454  0.5391178199099006  0.1442585617399789
  0.8498930122458125  0.4599695280335088  0.8397148434099870
  0.1364936388941854  0.5374912252234434  0.8558473078842849
  0.1595220699925361  0.1496606729625170  0.4484611267701737
  0.1442585617399790  0.8661125399567454  0.5391178199099006
  0.8397148434099870  0.8498930122458125  0.4599695280335088
  0.8558473078842849  0.1364936388941854  0.5374912252234434
  0.4484611267701737  0.1595220699925361  0.1496606729625170
  0.5391178199099006  0.1442585617399789  0.8661125399567454
  0.4599695280335088  0.8397148434099870  0.8498930122458125
  0.5374912252234434  0.8558473078842849  0.1364936388941854
  0.9653679160019257  0.6375641473702012  0.6466981882198639
  0.0482929559230463  0.3503506602314644  0.6567449025302724
  0.9497614508381635  0.3648467255831699  0.3544481984588591
  0.0486067869200193  0.6474386145198174  0.3403992508281133
  0.6375641473702012  0.6466981882198639  0.9653679160019258
  0.3503506602314644  0.6567449025302724  0.0482929559230463
  0.3648467255831699  0.3544481984588591  0.9497614508381635
  0.6474386145198174  0.3403992508281133  0.0486067869200193
  0.6466981882198639  0.9653679160019257  0.6375641473702012
  0.6567449025302724  0.0482929559230463  0.3503506602314644
  0.3544481984588591  0.9497614508381635  0.3648467255831699
  0.3403992508281133  0.0486067869200193  0.6474386145198174
  0.2088723793810918  0.2088723793810918  0.2088723793810918
  0.3067798824992258  0.3075387189706258  0.6896523573307888
  0.6896523573307888  0.3067798824992258  0.3075387189706258
  0.3075387189706258  0.6896523573307888  0.3067798824992258
  0.2504994375803163  0.4982799551694265  0.0035379107670586
  0.7496884030271671  0.4958767647265262 -0.0003620214093146
  0.0035379107670586  0.2504994375803163  0.4982799551694265
 -0.0003620214093146  0.7496884030271671  0.4958767647265262
  0.4982799551694265  0.0035379107670586  0.2504994375803163
  0.4958767647265262 -0.0003620214093146  0.7496884030271671
  0.2497707480962977  0.0035083504978951  0.4992248489232070
  0.7494819336237343  0.0001283758615567  0.4961499997444599
  0.4992248489232070  0.2497707480962977  0.0035083504978951
  0.4961499997444598  0.7494819336237343  0.0001283758615567
  0.0035083504978951  0.4992248489232070  0.2497707480962977
  0.0001283758615567  0.4961499997444598  0.7494819336237343
  0.0424400749936973  0.0424400749936973  0.0424400749936973
  0.4656863025173433  0.4656863025173433  0.4656863025173433
  0.8295700158969093  0.8304462616969182  0.1667834650443282
  0.8304462616969182  0.1667834650443282  0.8295700158969093
  0.1667834650443282  0.8295700158969093  0.8304462616969182
  0.6593836906127518  0.6593836906127518  0.6593836906127518
 
  0.00000000E+00  0.00000000E+00  0.00000000E+00
  0.00000000E+00  0.00000000E+00  0.00000000E+00
  0.00000000E+00  0.00000000E+00  0.00000000E+00
  0.00000000E+00  0.00000000E+00  0.00000000E+00
  0.00000000E+00  0.00000000E+00  0.00000000E+00
  0.00000000E+00  0.00000000E+00  0.00000000E+00
  0.00000000E+00  0.00000000E+00  0.00000000E+00
  0.00000000E+00  0.00000000E+00  0.00000000E+00
  0.00000000E+00  0.00000000E+00  0.00000000E+00
  0.00000000E+00  0.00000000E+00  0.00000000E+00
  0.00000000E+00  0.00000000E+00  0.00000000E+00
  0.00000000E+00  0.00000000E+00  0.00000000E+00
  0.00000000E+00  0.00000000E+00  0.00000000E+00
  0.00000000E+00  0.00000000E+00  0.00000000E+00
  0.00000000E+00  0.00000000E+00  0.00000000E+00
  0.00000000E+00  0.00000000E+00  0.00000000E+00
  0.00000000E+00  0.00000000E+00  0.00000000E+00
  0.00000000E+00  0.00000000E+00  0.00000000E+00
  0.00000000E+00  0.00000000E+00  0.00000000E+00
  0.00000000E+00  0.00000000E+00  0.00000000E+00
  0.00000000E+00  0.00000000E+00  0.00000000E+00
  0.00000000E+00  0.00000000E+00  0.00000000E+00
  0.00000000E+00  0.00000000E+00  0.00000000E+00
  0.00000000E+00  0.00000000E+00  0.00000000E+00
  0.00000000E+00  0.00000000E+00  0.00000000E+00
  0.00000000E+00  0.00000000E+00  0.00000000E+00
  0.00000000E+00  0.00000000E+00  0.00000000E+00
  0.00000000E+00  0.00000000E+00  0.00000000E+00
  0.00000000E+00  0.00000000E+00  0.00000000E+00
  0.00000000E+00  0.00000000E+00  0.00000000E+00
  0.00000000E+00  0.00000000E+00  0.00000000E+00
  0.00000000E+00  0.00000000E+00  0.00000000E+00
  0.00000000E+00  0.00000000E+00  0.00000000E+00
  0.00000000E+00  0.00000000E+00  0.00000000E+00
  0.00000000E+00  0.00000000E+00  0.00000000E+00
  0.00000000E+00  0.00000000E+00  0.00000000E+00
  0.00000000E+00  0.00000000E+00  0.00000000E+00
  0.00000000E+00  0.00000000E+00  0.00000000E+00
  0.00000000E+00  0.00000000E+00  0.00000000E+00
  0.00000000E+00  0.00000000E+00  0.00000000E+00
  0.00000000E+00  0.00000000E+00  0.00000000E+00
  0.00000000E+00  0.00000000E+00  0.00000000E+00
  0.00000000E+00  0.00000000E+00  0.00000000E+00
  0.00000000E+00  0.00000000E+00  0.00000000E+00
  0.00000000E+00  0.00000000E+00  0.00000000E+00
  0.00000000E+00  0.00000000E+00  0.00000000E+00
