Sodilite                                
   1.00000000000000     
     9.2120125094017151    0.0057696888389258   -0.0129989066784990
     0.0057803943633524    9.2313013925727194   -0.0062840600536745
    -0.0129961050346298   -0.0062646323050604    9.2107636451997035
   O    Na   Al   Si   Cl   K 
    24     3     6     6     2     5
Direct
  0.1336435902955589  0.4653085128780808  0.1447325660354963
  0.8470684509691883  0.5363381220458669  0.1635575436149005
  0.8649342654231230  0.4655903150619075  0.8590798432681823
  0.1506653758726698  0.5457800772936640  0.8389035050014378
  0.1462603984654999  0.1347418463778235  0.4685950718368841
  0.1569314915256315  0.8487582073050010  0.5485931784893305
  0.8537185455429263  0.8617727389663997  0.4646039845439509
  0.8382772173976156  0.1477421492021447  0.5360760446661208
  0.4651282000038073  0.1568865608438941  0.1521251979008595
  0.5305452573396742  0.1448439507697384  0.8626786592893447
  0.4500723964313596  0.8389832966969449  0.8521411100664462
  0.5364523596924361  0.8532114725440526  0.1357418145672046
  0.9510503900909982  0.6398775505743368  0.6514280706335613
  0.0344090905232038  0.3553754649407316  0.6571877489531182
  0.9681890641461938  0.3571506018485905  0.3506684909070432
  0.0438637175634939  0.6450692607730548  0.3474645830936231
  0.6427460542918667  0.6549799610000840  0.9559436221258284
  0.3588603920360101  0.6486728980745731  0.0482385229920726
  0.3525736584865454  0.3454046169650903  0.9657456137259683
  0.6411527520114847  0.3475473529137531  0.0326981888889633
  0.6621792174771186  0.9540892476608921  0.6571784023387621
  0.6401416272937781  0.0287064049325074  0.3692221555877744
  0.3326011987105079  0.9530148666662568  0.3466943520792136
  0.3598272013355757  0.0353406809535351  0.6303306641125729
  0.2065592866323763  0.7922850809385862  0.7924727267572527
  0.6971651413861166  0.6991238205913327  0.6970919923668859
  0.3020065706755425  0.6980471753072743  0.3025627983069741
  0.2483625313618007  0.5016484345368776 -0.0012454746472247
  0.7477163419466447  0.5020747926940029  0.0033604371099508
 -0.0027636782496477  0.2479924465632329  0.5039620335713036
  0.0008878319129170  0.7482254926003427  0.5032428346972465
  0.4934880253600284 -0.0032766580186583  0.2522768061010631
  0.4995524181087481 -0.0068899052254161  0.7514471263361309
  0.2485327929953138 -0.0072167556149981  0.4995106953678494
  0.7479648402156409 -0.0027400841179568  0.5067134526619255
  0.4968167229094498  0.2482958644106495  0.0030929649015431
  0.4966627221054498  0.7487004508449361 -0.0015298482774263
 -0.0020975769769849  0.5013594505599517  0.2521064630898452
  0.0003316004260737  0.5018674639868128  0.7518437462019184
  0.0381391022326522 -0.0419521648725017 -0.0383615246100171
  0.4977321354567705  0.5698066028554170  0.5020220958643961
  0.1692557592846161  0.1717513897271053  0.1715911510086364
  0.8266486864869688  0.8287677666932863  0.1737429589842928
  0.8279204890067733  0.1721505030572056  0.8316270581816658
  0.3323170968547055  0.3309708259308560  0.6676923382050577
  0.6655092469417768  0.3338218492627365  0.3351482331020714
 
  0.00000000E+00  0.00000000E+00  0.00000000E+00
  0.00000000E+00  0.00000000E+00  0.00000000E+00
  0.00000000E+00  0.00000000E+00  0.00000000E+00
  0.00000000E+00  0.00000000E+00  0.00000000E+00
  0.00000000E+00  0.00000000E+00  0.00000000E+00
  0.00000000E+00  0.00000000E+00  0.00000000E+00
  0.00000000E+00  0.00000000E+00  0.00000000E+00
  0.00000000E+00  0.00000000E+00  0.00000000E+00
  0.00000000E+00  0.00000000E+00  0.00000000E+00
  0.00000000E+00  0.00000000E+00  0.00000000E+00
  0.00000000E+00  0.00000000E+00  0.00000000E+00
  0.00000000E+00  0.00000000E+00  0.00000000E+00
  0.00000000E+00  0.00000000E+00  0.00000000E+00
  0.00000000E+00  0.00000000E+00  0.00000000E+00
  0.00000000E+00  0.00000000E+00  0.00000000E+00
  0.00000000E+00  0.00000000E+00  0.00000000E+00
  0.00000000E+00  0.00000000E+00  0.00000000E+00
  0.00000000E+00  0.00000000E+00  0.00000000E+00
  0.00000000E+00  0.00000000E+00  0.00000000E+00
  0.00000000E+00  0.00000000E+00  0.00000000E+00
  0.00000000E+00  0.00000000E+00  0.00000000E+00
  0.00000000E+00  0.00000000E+00  0.00000000E+00
  0.00000000E+00  0.00000000E+00  0.00000000E+00
  0.00000000E+00  0.00000000E+00  0.00000000E+00
  0.00000000E+00  0.00000000E+00  0.00000000E+00
  0.00000000E+00  0.00000000E+00  0.00000000E+00
  0.00000000E+00  0.00000000E+00  0.00000000E+00
  0.00000000E+00  0.00000000E+00  0.00000000E+00
  0.00000000E+00  0.00000000E+00  0.00000000E+00
  0.00000000E+00  0.00000000E+00  0.00000000E+00
  0.00000000E+00  0.00000000E+00  0.00000000E+00
  0.00000000E+00  0.00000000E+00  0.00000000E+00
  0.00000000E+00  0.00000000E+00  0.00000000E+00
  0.00000000E+00  0.00000000E+00  0.00000000E+00
  0.00000000E+00  0.00000000E+00  0.00000000E+00
  0.00000000E+00  0.00000000E+00  0.00000000E+00
  0.00000000E+00  0.00000000E+00  0.00000000E+00
  0.00000000E+00  0.00000000E+00  0.00000000E+00
  0.00000000E+00  0.00000000E+00  0.00000000E+00
  0.00000000E+00  0.00000000E+00  0.00000000E+00
  0.00000000E+00  0.00000000E+00  0.00000000E+00
  0.00000000E+00  0.00000000E+00  0.00000000E+00
  0.00000000E+00  0.00000000E+00  0.00000000E+00
  0.00000000E+00  0.00000000E+00  0.00000000E+00
  0.00000000E+00  0.00000000E+00  0.00000000E+00
  0.00000000E+00  0.00000000E+00  0.00000000E+00
