Sodilite                                
   1.00000000000000     
     9.2275840948558372   -0.0362882116738150   -0.0134146132595049
    -0.0363036069878362    9.2270641975356185   -0.0149072665137685
    -0.0134085868591246   -0.0149003379594620    9.2263621562490243
   O    Na   Al   Si   Cl   K 
    24     3     6     6     2     5
Direct
  0.1506987503069374  0.4561338850857753  0.1557355507727281
  0.8621307853449997  0.5299759849605971  0.1412243498679319
  0.8493722732999732  0.4604899059371457  0.8358526826336166
  0.1341326429489992  0.5365721593848675  0.8510632360344680
  0.1569185380429477  0.1486231233569797  0.4518854368902688
  0.1470757562026139  0.8622414753009552  0.5318735112896377
  0.8413253489075594  0.8495565530664988  0.4624642425306916
  0.8507702803316577  0.1372091268327265  0.5322979695774614
  0.4547538824086573  0.1603767993277603  0.1471262084997776
  0.5352410109550012  0.1423462044437053  0.8621013809571768
  0.4616759594101547  0.8401423139489240  0.8454045501512766
  0.5317403734764877  0.8515474649359630  0.1326842984744926
  0.9602053731625471  0.6412360898872775  0.6480227779764864
  0.0431654168617480  0.3537395583307020  0.6506931998890291
  0.9616295556035656  0.3583525194324221  0.3468788820311778
  0.0353907490458239  0.6437302647015741  0.3402500928318186
  0.6519912720537453  0.6604517251044048  0.9556469096493831
  0.3645485395584433  0.6419526284240341  0.0307411378071337
  0.3471982383665158  0.3380556820730584  0.9496312792640444
  0.6321787135752343  0.3536353970217943  0.0318628249758942
  0.6504492765248731  0.9593451373327710  0.6397176897127282
  0.6525371509000496  0.0335166329151835  0.3513067005026279
  0.3501675154594464  0.9622633392841753  0.3572088455476820
  0.3425935524384590  0.0450901837591167  0.6421176827410713
  0.2024606446310958  0.2036793837009424  0.2020211943538688
  0.6909450567429940  0.6911644008005713  0.6932730844984901
  0.3011226934219802  0.3026207728756897  0.6972018616344531
  0.2488594472231869  0.4939484668568994 -0.0044586513345312
  0.7478338279326856  0.4994245149534142 -0.0088252349964982
  0.0014538033408523  0.2486396580403266  0.4953922731291693
 -0.0022969209857602  0.7482683920116794  0.4947888979354264
  0.4971436691790166  0.0014837972593768  0.2444445010805965
  0.4964761583653674 -0.0024639268904206  0.7449254503645226
  0.2488358619865152  0.0035541471186448  0.4953151318550549
  0.7483219773258865 -0.0042307551585554  0.4956827577834695
  0.4926864293844490  0.2486045155527424 -0.0034587058051817
  0.5012803246713861  0.7480675464614804 -0.0090817714733858
  0.0019973807377916  0.4968306226542886  0.2448910234203582
 -0.0029291164086288  0.4974021129779693  0.7453951310808302
  0.0367731806756286  0.0368547610371203  0.0330178792282055
  0.4960751353687546  0.4962499587679538  0.5640953730274170
  0.8280640774165208  0.8268280544640070  0.1692085399569924
  0.8250349211652948  0.1706178888150111  0.8255426793053455
  0.1714135643547038  0.8261587845210504  0.8250051006777028
  0.6680676576610313  0.3311005493371129  0.3313187845995809
  0.3324892706228070  0.6686121989942813  0.3305132590695086
 
  0.00000000E+00  0.00000000E+00  0.00000000E+00
  0.00000000E+00  0.00000000E+00  0.00000000E+00
  0.00000000E+00  0.00000000E+00  0.00000000E+00
  0.00000000E+00  0.00000000E+00  0.00000000E+00
  0.00000000E+00  0.00000000E+00  0.00000000E+00
  0.00000000E+00  0.00000000E+00  0.00000000E+00
  0.00000000E+00  0.00000000E+00  0.00000000E+00
  0.00000000E+00  0.00000000E+00  0.00000000E+00
  0.00000000E+00  0.00000000E+00  0.00000000E+00
  0.00000000E+00  0.00000000E+00  0.00000000E+00
  0.00000000E+00  0.00000000E+00  0.00000000E+00
  0.00000000E+00  0.00000000E+00  0.00000000E+00
  0.00000000E+00  0.00000000E+00  0.00000000E+00
  0.00000000E+00  0.00000000E+00  0.00000000E+00
  0.00000000E+00  0.00000000E+00  0.00000000E+00
  0.00000000E+00  0.00000000E+00  0.00000000E+00
  0.00000000E+00  0.00000000E+00  0.00000000E+00
  0.00000000E+00  0.00000000E+00  0.00000000E+00
  0.00000000E+00  0.00000000E+00  0.00000000E+00
  0.00000000E+00  0.00000000E+00  0.00000000E+00
  0.00000000E+00  0.00000000E+00  0.00000000E+00
  0.00000000E+00  0.00000000E+00  0.00000000E+00
  0.00000000E+00  0.00000000E+00  0.00000000E+00
  0.00000000E+00  0.00000000E+00  0.00000000E+00
  0.00000000E+00  0.00000000E+00  0.00000000E+00
  0.00000000E+00  0.00000000E+00  0.00000000E+00
  0.00000000E+00  0.00000000E+00  0.00000000E+00
  0.00000000E+00  0.00000000E+00  0.00000000E+00
  0.00000000E+00  0.00000000E+00  0.00000000E+00
  0.00000000E+00  0.00000000E+00  0.00000000E+00
  0.00000000E+00  0.00000000E+00  0.00000000E+00
  0.00000000E+00  0.00000000E+00  0.00000000E+00
  0.00000000E+00  0.00000000E+00  0.00000000E+00
  0.00000000E+00  0.00000000E+00  0.00000000E+00
  0.00000000E+00  0.00000000E+00  0.00000000E+00
  0.00000000E+00  0.00000000E+00  0.00000000E+00
  0.00000000E+00  0.00000000E+00  0.00000000E+00
  0.00000000E+00  0.00000000E+00  0.00000000E+00
  0.00000000E+00  0.00000000E+00  0.00000000E+00
  0.00000000E+00  0.00000000E+00  0.00000000E+00
  0.00000000E+00  0.00000000E+00  0.00000000E+00
  0.00000000E+00  0.00000000E+00  0.00000000E+00
  0.00000000E+00  0.00000000E+00  0.00000000E+00
  0.00000000E+00  0.00000000E+00  0.00000000E+00
  0.00000000E+00  0.00000000E+00  0.00000000E+00
  0.00000000E+00  0.00000000E+00  0.00000000E+00
