Sodilite                                
   1.00000000000000     
     9.2317257266568422    0.0062048457433471   -0.0057482889786463
     0.0061854140762027    9.2112082699121753   -0.0130174581755374
    -0.0057373811716585   -0.0130202347622487    9.2124726820084266
   O    Na   Al   Si   Cl   K 
    24     3     6     6     2     5
Direct
  0.1477505887089132  0.4639134925557327  0.1617209661355365
  0.8617788602883398  0.5353957882598575  0.1462932937100236
  0.8487580507883573  0.4514214009488288  0.8430657513062249
  0.1347447388972830  0.5314164052496581  0.8537259103588257
  0.1448477192743575  0.1373234750400477  0.4694451435734657
  0.1568891317599651  0.8478732527711952  0.5348803329973700
  0.8531943059982954  0.8642506874072385  0.4635460213973950
  0.8389831911356850  0.1478590654155255  0.5499170585324558
  0.4655726135151703  0.1409313258684187  0.1350651338000283
  0.5457676699564916  0.1610997539272659  0.8493337875547744
  0.4652908520341729  0.8552643619297392  0.8663558228307291
  0.5363371812159914  0.8364385681853690  0.1529280966215930
  0.9530147301659887  0.6533090726414351  0.6673978346523763
  0.0353465224801166  0.3696710301835265  0.6401817765951147
  0.9540945003451501  0.3428258986202248  0.3378141595483517
  0.0287266026382239  0.6307732296054630  0.3598557069463300
  0.6450616371437601  0.6525395662466473  0.9561408473647253
  0.3571479192269161  0.6493467984498259  0.0318257885724278
  0.3553775672532507  0.3427976848113770  0.9655772023934290
  0.6398778086489979  0.3485707292805559  0.0489449325196929
  0.6486817549340966  0.9517666279866309  0.6411407033737415
  0.6549889182629303  0.0440536713101006  0.3572524944650043
  0.3475418915894008  0.9672845857658076  0.3588457329878385
  0.3453915424000759  0.0342678920562998  0.6474140256771019
  0.7922960089849408  0.2075202301804148  0.7934447596501639
  0.6980561957268756  0.6974392779515352  0.6979956697421771
  0.6991325115093605  0.3029092926653260  0.3028281760581115
  0.2479742287886052  0.4960429770329709  0.0027642380469121
  0.7482232027419679  0.4967598894748779 -0.0008853369396738
 -0.0068810172290000  0.2485503219267327  0.5004489501888095
 -0.0032685127632397  0.7477302390279859  0.5065090465216883
  0.5020675714973334 -0.0033555953530370  0.2522740893461126
  0.5016487671955140  0.0012441137721789  0.7516451379261379
  0.2482992625928001 -0.0030896973113341  0.5031779977690529
  0.7487004998430908  0.0015347624561064  0.5033296376629675
  0.5018572523087003  0.2481569411130339 -0.0003416344356744
  0.5013515298601691  0.7478989253072993  0.0020958001222682
 -0.0027268756214115  0.4932914431493989  0.2520354300487358
 -0.0072018260254089  0.5005017607304885  0.7514637622938732
 -0.0420177314246100  0.0383549442296023 -0.0381319817471701
  0.5698632369014962  0.4979346903282894  0.5023111857110043
  0.1721314465560194  0.1683801837151725  0.1720717646773838
  0.8287561056917789  0.8262424491302373  0.1733635727479646
  0.1717378391898659  0.8284143986324422  0.8307425312767441
  0.3309786179055569  0.3323033971613912  0.6676859631962646
  0.3338553871076670  0.6648406901621163  0.3345027162215913
 
  0.00000000E+00  0.00000000E+00  0.00000000E+00
  0.00000000E+00  0.00000000E+00  0.00000000E+00
  0.00000000E+00  0.00000000E+00  0.00000000E+00
  0.00000000E+00  0.00000000E+00  0.00000000E+00
  0.00000000E+00  0.00000000E+00  0.00000000E+00
  0.00000000E+00  0.00000000E+00  0.00000000E+00
  0.00000000E+00  0.00000000E+00  0.00000000E+00
  0.00000000E+00  0.00000000E+00  0.00000000E+00
  0.00000000E+00  0.00000000E+00  0.00000000E+00
  0.00000000E+00  0.00000000E+00  0.00000000E+00
  0.00000000E+00  0.00000000E+00  0.00000000E+00
  0.00000000E+00  0.00000000E+00  0.00000000E+00
  0.00000000E+00  0.00000000E+00  0.00000000E+00
  0.00000000E+00  0.00000000E+00  0.00000000E+00
  0.00000000E+00  0.00000000E+00  0.00000000E+00
  0.00000000E+00  0.00000000E+00  0.00000000E+00
  0.00000000E+00  0.00000000E+00  0.00000000E+00
  0.00000000E+00  0.00000000E+00  0.00000000E+00
  0.00000000E+00  0.00000000E+00  0.00000000E+00
  0.00000000E+00  0.00000000E+00  0.00000000E+00
  0.00000000E+00  0.00000000E+00  0.00000000E+00
  0.00000000E+00  0.00000000E+00  0.00000000E+00
  0.00000000E+00  0.00000000E+00  0.00000000E+00
  0.00000000E+00  0.00000000E+00  0.00000000E+00
  0.00000000E+00  0.00000000E+00  0.00000000E+00
  0.00000000E+00  0.00000000E+00  0.00000000E+00
  0.00000000E+00  0.00000000E+00  0.00000000E+00
  0.00000000E+00  0.00000000E+00  0.00000000E+00
  0.00000000E+00  0.00000000E+00  0.00000000E+00
  0.00000000E+00  0.00000000E+00  0.00000000E+00
  0.00000000E+00  0.00000000E+00  0.00000000E+00
  0.00000000E+00  0.00000000E+00  0.00000000E+00
  0.00000000E+00  0.00000000E+00  0.00000000E+00
  0.00000000E+00  0.00000000E+00  0.00000000E+00
  0.00000000E+00  0.00000000E+00  0.00000000E+00
  0.00000000E+00  0.00000000E+00  0.00000000E+00
  0.00000000E+00  0.00000000E+00  0.00000000E+00
  0.00000000E+00  0.00000000E+00  0.00000000E+00
  0.00000000E+00  0.00000000E+00  0.00000000E+00
  0.00000000E+00  0.00000000E+00  0.00000000E+00
  0.00000000E+00  0.00000000E+00  0.00000000E+00
  0.00000000E+00  0.00000000E+00  0.00000000E+00
  0.00000000E+00  0.00000000E+00  0.00000000E+00
  0.00000000E+00  0.00000000E+00  0.00000000E+00
  0.00000000E+00  0.00000000E+00  0.00000000E+00
  0.00000000E+00  0.00000000E+00  0.00000000E+00
