Sodilite                                
   1.00000000000000     
     9.0385965899241967   -0.0321371858472882    0.0002508040724056
    -0.0321371858472882    9.0385965899241967    0.0002508040724056
     0.0002484324441282    0.0002484324441282    9.0332161226971301
   O    Na   Al   Si   Cl   K 
    24     6     6     6     2     2
Direct
  0.1360237744539368  0.4429247506515941  0.1419866313578177
  0.8546237022650381  0.5578020693521786  0.1537933438368603
  0.8647098029174328  0.4501575193147838  0.8514557756412853
  0.1451309675052167  0.5621929258328729  0.8426988119028890
  0.1562484511489883  0.1448835640981064  0.4381582877793521
  0.1445754877473167  0.8663287725423089  0.5584391604486542
  0.8454674929902697  0.8525749859640641  0.4389030616029512
  0.8537531844816093  0.1358494159447702  0.5458510941943430
  0.4415244287962211  0.1562570494580503  0.1445867482956747
  0.5484318441609533  0.1443197629559010  0.8615499571932143
  0.4383984565530934  0.8450121003060143  0.8543007802423661
  0.5583913102503979  0.8540244479407799  0.1330428485747746
  0.9429247506515940  0.6360237744539371  0.6419866313578180
  0.0578020693521784  0.3546237022650381  0.6537933438368608
  0.9501575193147834  0.3647098029174332  0.3514557756412853
  0.0621929258328729  0.6451309675052168  0.3426988119028891
  0.6448835640981061  0.6562484511489880  0.9381582877793522
  0.3663287725423091  0.6445754877473171  0.0584391604486542
  0.3525749859640644  0.3454674929902690  0.9389030616029512
  0.6358494159447708  0.3537531844816095  0.0458510941943428
  0.6562570494580502  0.9415244287962210  0.6445867482956749
  0.6443197629559013  0.0484318441609533  0.3615499571932141
  0.3450121003060135  0.9383984565530935  0.3543007802423662
  0.3540244479407802  0.0583913102503978  0.6330428485747743
  0.1849581111933697  0.1850820375257677  0.1825956122588858
  0.8161781903265080  0.8145492373194352  0.1834317363110932
  0.1872275021277853  0.8133103341008140  0.8112438080026565
  0.6850820375257680  0.6849581111933694  0.6825956122588862
  0.3145492373194348  0.3161781903265080  0.6834317363110930
  0.3133103341008137  0.6872275021277852  0.3112438080026559
  0.2500836066864152  0.5007655747144020 -0.0053058568634239
  0.7499229569036119  0.5039002058005223 -0.0027842969153374
  0.0039002058005225  0.2499229569036117  0.4972157030846626
  0.0007655747144019  0.7500836066864153  0.4946941431365762
  0.4963321082381911 -0.0009525884647762  0.2465504065576004
  0.4990474115352237 -0.0036678917618090  0.7465504065576006
  0.2499714477933566  0.0008981479191717  0.4953946220642305
  0.7500045915693014 -0.0050057760413048  0.4973010045551258
  0.4949942239586950  0.2500045915693009 -0.0026989954448740
  0.5008981479191716  0.7499714477933571 -0.0046053779357696
  0.0010151813336286  0.5030660590577589  0.2467809627152568
  0.0030660590577590  0.5010151813336282  0.7467809627152570
  0.0396341306378669 -0.0393681718016578  0.0344181834318214
  0.4606318281983424  0.5396341306378670  0.5344181834318213
  0.8459601066662819  0.1528607387616533  0.8456073168119091
  0.6528607387616530  0.3459601066662815  0.3456073168119084
 
  0.00000000E+00  0.00000000E+00  0.00000000E+00
  0.00000000E+00  0.00000000E+00  0.00000000E+00
  0.00000000E+00  0.00000000E+00  0.00000000E+00
  0.00000000E+00  0.00000000E+00  0.00000000E+00
  0.00000000E+00  0.00000000E+00  0.00000000E+00
  0.00000000E+00  0.00000000E+00  0.00000000E+00
  0.00000000E+00  0.00000000E+00  0.00000000E+00
  0.00000000E+00  0.00000000E+00  0.00000000E+00
  0.00000000E+00  0.00000000E+00  0.00000000E+00
  0.00000000E+00  0.00000000E+00  0.00000000E+00
  0.00000000E+00  0.00000000E+00  0.00000000E+00
  0.00000000E+00  0.00000000E+00  0.00000000E+00
  0.00000000E+00  0.00000000E+00  0.00000000E+00
  0.00000000E+00  0.00000000E+00  0.00000000E+00
  0.00000000E+00  0.00000000E+00  0.00000000E+00
  0.00000000E+00  0.00000000E+00  0.00000000E+00
  0.00000000E+00  0.00000000E+00  0.00000000E+00
  0.00000000E+00  0.00000000E+00  0.00000000E+00
  0.00000000E+00  0.00000000E+00  0.00000000E+00
  0.00000000E+00  0.00000000E+00  0.00000000E+00
  0.00000000E+00  0.00000000E+00  0.00000000E+00
  0.00000000E+00  0.00000000E+00  0.00000000E+00
  0.00000000E+00  0.00000000E+00  0.00000000E+00
  0.00000000E+00  0.00000000E+00  0.00000000E+00
  0.00000000E+00  0.00000000E+00  0.00000000E+00
  0.00000000E+00  0.00000000E+00  0.00000000E+00
  0.00000000E+00  0.00000000E+00  0.00000000E+00
  0.00000000E+00  0.00000000E+00  0.00000000E+00
  0.00000000E+00  0.00000000E+00  0.00000000E+00
  0.00000000E+00  0.00000000E+00  0.00000000E+00
  0.00000000E+00  0.00000000E+00  0.00000000E+00
  0.00000000E+00  0.00000000E+00  0.00000000E+00
  0.00000000E+00  0.00000000E+00  0.00000000E+00
  0.00000000E+00  0.00000000E+00  0.00000000E+00
  0.00000000E+00  0.00000000E+00  0.00000000E+00
  0.00000000E+00  0.00000000E+00  0.00000000E+00
  0.00000000E+00  0.00000000E+00  0.00000000E+00
  0.00000000E+00  0.00000000E+00  0.00000000E+00
  0.00000000E+00  0.00000000E+00  0.00000000E+00
  0.00000000E+00  0.00000000E+00  0.00000000E+00
  0.00000000E+00  0.00000000E+00  0.00000000E+00
  0.00000000E+00  0.00000000E+00  0.00000000E+00
  0.00000000E+00  0.00000000E+00  0.00000000E+00
  0.00000000E+00  0.00000000E+00  0.00000000E+00
  0.00000000E+00  0.00000000E+00  0.00000000E+00
  0.00000000E+00  0.00000000E+00  0.00000000E+00
