Sodilite                                
   1.00000000000000     
     9.0957053380237483   -0.0159511019150479   -0.0144107521719322
    -0.0159497667234445    9.1073199208064484   -0.0146422409430848
    -0.0144032273257722   -0.0146451904825212    9.0947349454200204
   O    Na   Al   Si   Cl   K 
    24     5     6     6     2     3
Direct
  0.1346324602352022  0.4466511939536164  0.1438769472127079
  0.8522195930281260  0.5542615101434560  0.1569679151122629
  0.8633652427347280  0.4557824877270716  0.8543842257864164
  0.1470611836772839  0.5549511203843421  0.8410869628551583
  0.1566682048988814  0.1450490653118563  0.4466181855401191
  0.1438645221759602  0.8633858734899204  0.5543753889884089
  0.8446362290301688  0.8523680813293106  0.4422848106180088
  0.8503493609479942  0.1356944724019696  0.5417460098853395
  0.4470604823782818  0.1540186158404508  0.1473194577655559
  0.5405322777701435  0.1446712550723515  0.8606528792871476
  0.4414197944305790  0.8426459842024648  0.8548278695475293
  0.5558010009241282  0.8523135967618118  0.1338994735520646
  0.9451357848994525  0.6418922107584457  0.6490757902196275
  0.0432254896113396  0.3574584404366983  0.6510279772465396
  0.9526107276796455  0.3581946797813437  0.3472837941785977
  0.0563786208516728  0.6399325762576538  0.3481764261166346
  0.6394343903569116  0.6503749061849021  0.9438699543856933
  0.3595030005971077  0.6493970067209887  0.0560459439461236
  0.3556446969915507  0.3482706522427037  0.9538272692350183
  0.6414828980437872  0.3463973494963450  0.0437423993411832
  0.6626528256314687  0.9443412282046691  0.6526637841340183
  0.6371481263731547  0.0411325405673287  0.3688250774661999
  0.3356729428847361  0.9414392922393348  0.3459816917592056
  0.3591428587495997  0.0427196288658254  0.6279574833466750
  0.1866961834151674  0.1826797417421325  0.1857224850550120
  0.8114449849617381  0.8099567002656589  0.1889050673613229
  0.1881690195259629  0.8104429623819051  0.8103374537669180
  0.6933724972747467  0.6918694318780839  0.6923009719053782
  0.3028986474137719  0.6942325268752026  0.3025736835250091
  0.2482280203368990  0.5011144431790056 -0.0019754919197672
  0.7483581449357095  0.5014201047967629  0.0007175749430697
  0.0004703146366260  0.2477759186874225  0.4970590940158828
 -0.0018477662688083  0.7489512486275360  0.4972542893679989
  0.4940055685315768 -0.0046559667765199  0.2483047209752272
  0.5003929464726786 -0.0073658435094874  0.7481794038108344
  0.2486348566608479 -0.0031049802916255  0.4938380604412809
  0.7483615401684022 -0.0071729968589584  0.5007460229663419
  0.4962952645708188  0.2477482736876736  0.0009893308131935
  0.4982954857551662  0.7486001980848621 -0.0025776932275809
 -0.0013395738568784  0.5002881947332136  0.2486250809446234
 -0.0000678532924066  0.5022448738638562  0.7485897499100714
  0.0336759667107750 -0.0402015051362613  0.0334859198455851
  0.4974357190634879  0.5792895259123729  0.4972176890572733
  0.8425498611020250  0.1564381931009061  0.8435499799166832
  0.3396470042313114  0.3386135082618600  0.6593874754273560
  0.6586804527484778  0.3374916781195377  0.3402514135720514
 
  0.00000000E+00  0.00000000E+00  0.00000000E+00
  0.00000000E+00  0.00000000E+00  0.00000000E+00
  0.00000000E+00  0.00000000E+00  0.00000000E+00
  0.00000000E+00  0.00000000E+00  0.00000000E+00
  0.00000000E+00  0.00000000E+00  0.00000000E+00
  0.00000000E+00  0.00000000E+00  0.00000000E+00
  0.00000000E+00  0.00000000E+00  0.00000000E+00
  0.00000000E+00  0.00000000E+00  0.00000000E+00
  0.00000000E+00  0.00000000E+00  0.00000000E+00
  0.00000000E+00  0.00000000E+00  0.00000000E+00
  0.00000000E+00  0.00000000E+00  0.00000000E+00
  0.00000000E+00  0.00000000E+00  0.00000000E+00
  0.00000000E+00  0.00000000E+00  0.00000000E+00
  0.00000000E+00  0.00000000E+00  0.00000000E+00
  0.00000000E+00  0.00000000E+00  0.00000000E+00
  0.00000000E+00  0.00000000E+00  0.00000000E+00
  0.00000000E+00  0.00000000E+00  0.00000000E+00
  0.00000000E+00  0.00000000E+00  0.00000000E+00
  0.00000000E+00  0.00000000E+00  0.00000000E+00
  0.00000000E+00  0.00000000E+00  0.00000000E+00
  0.00000000E+00  0.00000000E+00  0.00000000E+00
  0.00000000E+00  0.00000000E+00  0.00000000E+00
  0.00000000E+00  0.00000000E+00  0.00000000E+00
  0.00000000E+00  0.00000000E+00  0.00000000E+00
  0.00000000E+00  0.00000000E+00  0.00000000E+00
  0.00000000E+00  0.00000000E+00  0.00000000E+00
  0.00000000E+00  0.00000000E+00  0.00000000E+00
  0.00000000E+00  0.00000000E+00  0.00000000E+00
  0.00000000E+00  0.00000000E+00  0.00000000E+00
  0.00000000E+00  0.00000000E+00  0.00000000E+00
  0.00000000E+00  0.00000000E+00  0.00000000E+00
  0.00000000E+00  0.00000000E+00  0.00000000E+00
  0.00000000E+00  0.00000000E+00  0.00000000E+00
  0.00000000E+00  0.00000000E+00  0.00000000E+00
  0.00000000E+00  0.00000000E+00  0.00000000E+00
  0.00000000E+00  0.00000000E+00  0.00000000E+00
  0.00000000E+00  0.00000000E+00  0.00000000E+00
  0.00000000E+00  0.00000000E+00  0.00000000E+00
  0.00000000E+00  0.00000000E+00  0.00000000E+00
  0.00000000E+00  0.00000000E+00  0.00000000E+00
  0.00000000E+00  0.00000000E+00  0.00000000E+00
  0.00000000E+00  0.00000000E+00  0.00000000E+00
  0.00000000E+00  0.00000000E+00  0.00000000E+00
  0.00000000E+00  0.00000000E+00  0.00000000E+00
  0.00000000E+00  0.00000000E+00  0.00000000E+00
  0.00000000E+00  0.00000000E+00  0.00000000E+00
