Sodilite                                
   1.00000000000000     
     9.2112073753794537    0.0061848086263685    0.0130165033563117
     0.0062042092577002    9.2317233627044999    0.0057468290492116
     0.0130192650257373    0.0057359364000286    9.2124729465564066
   O    Na   Al   Si   Cl   K 
    24     3     6     6     2     5
Direct
  0.1303296380104486  0.4646537859742283  0.1401827741549238
  0.8466915145945076  0.5469857248169827  0.1673973032227793
  0.8692264015844361  0.4712726903769157  0.8598552103262127
  0.1571736583988954  0.5459051518215029  0.8378147698631642
  0.1572022879833913  0.1446223937845343  0.4655765636252425
  0.1514293634542365  0.8601224983369066  0.5489450025251730
  0.8474603245703016  0.8549382907746522  0.4561411634126386
  0.8506531991499449  0.1428519716414522  0.5318257752154137
  0.4657321369090756  0.1546079366107418  0.1474137218475083
  0.5327154584423168  0.1524584316630639  0.8588455995148651
  0.4559460102321655  0.8450116105439707  0.8572530329664418
  0.5482338931218276  0.8513177125933790  0.1411408161963581
  0.9646042683792667  0.6382218606574170  0.6462943649207669
  0.0360866153932019  0.3522499712126444  0.6617202381254698
  0.9685829458987029  0.3652548210875218  0.3537251906545517
  0.0485785133876179  0.6512413140281359  0.3430668122629956
  0.6357492452067779  0.6468056486610079  0.9635450923035429
  0.3521412705687783  0.6610167826809810  0.0499173288290525
  0.3626763231549342  0.3551519823503899  0.9694456854462327
  0.6521264719055083  0.3431109795744503  0.0348808769907906
  0.6635610133209893  0.9636629345304160  0.6529275940527167
  0.6447361607867835  0.0347090642693122  0.3663551572053695
  0.3389003097936594  0.9542319845215048  0.3493337258659990
  0.3590687650439346  0.0344278563565239  0.6350646180116037
  0.8025611807011177  0.8019443178000296  0.1979954101426111
  0.1970899698738345  0.8008675811309889  0.8028284914652349
  0.2924800502230633  0.7077030347099615  0.2934453336907703
  0.2514496770576060  0.5068809200101472  0.0004494060114953
  0.7522696785382815  0.5032685606434826  0.0065087082975308
  0.0039569608747559  0.2520256388717158  0.5027636690591085
  0.0032400005217930  0.7517769059624823  0.4991152876560718
  0.4987559820775397 -0.0016490628448230  0.2516448845669577
  0.5033553641345939 -0.0020674506342199  0.7522739746134005
  0.2518431158887816 -0.0018571109248218  0.4996580249139220
  0.7521009887828678 -0.0013515213396979  0.5020956123420737
  0.5030896600451765  0.2517006447927556  0.0031781342970733
  0.4984654167755689  0.7512994684923625  0.0033295285243635
 -0.0005017722453014  0.5072017767819359  0.2514639130180135
  0.0067083951072556  0.5027268691857172  0.7520355136070233
  0.0020652308289907 -0.0698626948711564  0.0023109264364108
  0.4616455716103211  0.5420176433750954  0.4618686678321873
  0.1676968664489456  0.1690215084238975  0.1676859025344988
  0.8351590043239459  0.1661445705265635  0.8345022437042648
  0.6737577701273357  0.6712442404528111  0.6733634993864221
  0.3316195858728242  0.3278687374031912  0.6720720898392158
  0.6715855131389974  0.3282620231829441  0.3307423605215388
 
  0.00000000E+00  0.00000000E+00  0.00000000E+00
  0.00000000E+00  0.00000000E+00  0.00000000E+00
  0.00000000E+00  0.00000000E+00  0.00000000E+00
  0.00000000E+00  0.00000000E+00  0.00000000E+00
  0.00000000E+00  0.00000000E+00  0.00000000E+00
  0.00000000E+00  0.00000000E+00  0.00000000E+00
  0.00000000E+00  0.00000000E+00  0.00000000E+00
  0.00000000E+00  0.00000000E+00  0.00000000E+00
  0.00000000E+00  0.00000000E+00  0.00000000E+00
  0.00000000E+00  0.00000000E+00  0.00000000E+00
  0.00000000E+00  0.00000000E+00  0.00000000E+00
  0.00000000E+00  0.00000000E+00  0.00000000E+00
  0.00000000E+00  0.00000000E+00  0.00000000E+00
  0.00000000E+00  0.00000000E+00  0.00000000E+00
  0.00000000E+00  0.00000000E+00  0.00000000E+00
  0.00000000E+00  0.00000000E+00  0.00000000E+00
  0.00000000E+00  0.00000000E+00  0.00000000E+00
  0.00000000E+00  0.00000000E+00  0.00000000E+00
  0.00000000E+00  0.00000000E+00  0.00000000E+00
  0.00000000E+00  0.00000000E+00  0.00000000E+00
  0.00000000E+00  0.00000000E+00  0.00000000E+00
  0.00000000E+00  0.00000000E+00  0.00000000E+00
  0.00000000E+00  0.00000000E+00  0.00000000E+00
  0.00000000E+00  0.00000000E+00  0.00000000E+00
  0.00000000E+00  0.00000000E+00  0.00000000E+00
  0.00000000E+00  0.00000000E+00  0.00000000E+00
  0.00000000E+00  0.00000000E+00  0.00000000E+00
  0.00000000E+00  0.00000000E+00  0.00000000E+00
  0.00000000E+00  0.00000000E+00  0.00000000E+00
  0.00000000E+00  0.00000000E+00  0.00000000E+00
  0.00000000E+00  0.00000000E+00  0.00000000E+00
  0.00000000E+00  0.00000000E+00  0.00000000E+00
  0.00000000E+00  0.00000000E+00  0.00000000E+00
  0.00000000E+00  0.00000000E+00  0.00000000E+00
  0.00000000E+00  0.00000000E+00  0.00000000E+00
  0.00000000E+00  0.00000000E+00  0.00000000E+00
  0.00000000E+00  0.00000000E+00  0.00000000E+00
  0.00000000E+00  0.00000000E+00  0.00000000E+00
  0.00000000E+00  0.00000000E+00  0.00000000E+00
  0.00000000E+00  0.00000000E+00  0.00000000E+00
  0.00000000E+00  0.00000000E+00  0.00000000E+00
  0.00000000E+00  0.00000000E+00  0.00000000E+00
  0.00000000E+00  0.00000000E+00  0.00000000E+00
  0.00000000E+00  0.00000000E+00  0.00000000E+00
  0.00000000E+00  0.00000000E+00  0.00000000E+00
  0.00000000E+00  0.00000000E+00  0.00000000E+00
