Sodilite                                
   1.00000000000000     
     9.2312827109396505   -0.0057854693634488    0.0062874004022252
    -0.0057747120094151    9.2120084794794899   -0.0129980836186517
     0.0062679308508831   -0.0129953013656775    9.2107596772137121
   O    Na   Al   Si   Cl   K 
    24     3     6     6     2     5
Direct
  0.1450686703484790  0.4561356313833411  0.1525355063764867
  0.8571502811324598  0.5318106909355642  0.1493321754380197
  0.8553753697142531  0.4655912300145831  0.8428124715858535
  0.1398771703402340  0.5489500010281337  0.8485721663540255
  0.1486731768114924  0.1411393522512696  0.4517616492437004
  0.1549799962505068  0.8572541026398875  0.5440558111064008
  0.8475469914106158  0.8588469657949882  0.4673013792116537
  0.8454047164718740  0.1474256762831462  0.5342551575422444
  0.4530146476203578  0.1673978647599132  0.1533045770177511
  0.5353405224279233  0.1401735607891446  0.8696684457884235
  0.4540888221309443  0.8378210489290570  0.8428228685587691
  0.5287075480745027  0.8598574019100673  0.1307787908171673
  0.9655901553144862  0.6350660582438984  0.6409212259763941
  0.0457803076029825  0.3493355358005445  0.6610966986083877
  0.9653081074975144  0.3663560779087100  0.3552674434174860
  0.0363378109545319  0.6529307906027318  0.3364426259007887
  0.6477422645340977  0.6617229430697964  0.9639241176576138
  0.3617730609114971  0.6462812247449111  0.0353965628818577
  0.3487585058491874  0.3430684007751202  0.9514066543445991
  0.6347418293688919  0.3537389816924755  0.0314051070250353
  0.6448438954188650  0.9694537526351320  0.6373213428324933
  0.6568870250634679  0.0348719578050205  0.3478750772289594
  0.3532113167586625  0.9635481202528127  0.3642582235899545
  0.3389830252591254  0.0499272066101891  0.6478583912626864
  0.1980460484981911  0.1979922017152719  0.1974357804807388
  0.1991222852334532  0.8028365895821776  0.8029086869912564
  0.2922862322417916  0.2934412115058352  0.7075265311790243
  0.2482256344648339  0.4991118892077803 -0.0032426261145883
  0.7479923750842087  0.5027637216737036 -0.0039616120628850
  0.0016482892191734  0.2516372511381437  0.5012459065944823
  0.0020743532215370  0.7522833958428154  0.4966394982289506
  0.4967238867887273  0.0065117723940085  0.2477231472625161
  0.4931098814637084  0.0004470450709982  0.7485529857206917
  0.2487002442994345  0.0033369859958910  0.5015297616918793
  0.7482959092796028  0.0031829973718923  0.4969072709197957
  0.4927832593464652  0.2514667722930592  0.0004891571350429
  0.4972601078523811  0.7520352250605604 -0.0067127730106135
  0.0013591852079088  0.5020973274698813  0.2478938356328134
  0.0018672496333149  0.4996683372691105  0.7481564979075918
  0.0698095002232366  0.0022701222839861 -0.0020244357265542
  0.4580476477981114  0.4618626076565232  0.5383598833006433
  0.8338234715989735  0.8344906274170069  0.1648518953649419
  0.8309705181659611  0.1676839183211189  0.8323070634306374
  0.6721504299480756  0.6720798647690084  0.6683742298071244
  0.6717512035190858  0.3307432535558472  0.3284083920985182
  0.3287670696448715  0.6733523055449444  0.3262564534012414
 
  0.00000000E+00  0.00000000E+00  0.00000000E+00
  0.00000000E+00  0.00000000E+00  0.00000000E+00
  0.00000000E+00  0.00000000E+00  0.00000000E+00
  0.00000000E+00  0.00000000E+00  0.00000000E+00
  0.00000000E+00  0.00000000E+00  0.00000000E+00
  0.00000000E+00  0.00000000E+00  0.00000000E+00
  0.00000000E+00  0.00000000E+00  0.00000000E+00
  0.00000000E+00  0.00000000E+00  0.00000000E+00
  0.00000000E+00  0.00000000E+00  0.00000000E+00
  0.00000000E+00  0.00000000E+00  0.00000000E+00
  0.00000000E+00  0.00000000E+00  0.00000000E+00
  0.00000000E+00  0.00000000E+00  0.00000000E+00
  0.00000000E+00  0.00000000E+00  0.00000000E+00
  0.00000000E+00  0.00000000E+00  0.00000000E+00
  0.00000000E+00  0.00000000E+00  0.00000000E+00
  0.00000000E+00  0.00000000E+00  0.00000000E+00
  0.00000000E+00  0.00000000E+00  0.00000000E+00
  0.00000000E+00  0.00000000E+00  0.00000000E+00
  0.00000000E+00  0.00000000E+00  0.00000000E+00
  0.00000000E+00  0.00000000E+00  0.00000000E+00
  0.00000000E+00  0.00000000E+00  0.00000000E+00
  0.00000000E+00  0.00000000E+00  0.00000000E+00
  0.00000000E+00  0.00000000E+00  0.00000000E+00
  0.00000000E+00  0.00000000E+00  0.00000000E+00
  0.00000000E+00  0.00000000E+00  0.00000000E+00
  0.00000000E+00  0.00000000E+00  0.00000000E+00
  0.00000000E+00  0.00000000E+00  0.00000000E+00
  0.00000000E+00  0.00000000E+00  0.00000000E+00
  0.00000000E+00  0.00000000E+00  0.00000000E+00
  0.00000000E+00  0.00000000E+00  0.00000000E+00
  0.00000000E+00  0.00000000E+00  0.00000000E+00
  0.00000000E+00  0.00000000E+00  0.00000000E+00
  0.00000000E+00  0.00000000E+00  0.00000000E+00
  0.00000000E+00  0.00000000E+00  0.00000000E+00
  0.00000000E+00  0.00000000E+00  0.00000000E+00
  0.00000000E+00  0.00000000E+00  0.00000000E+00
  0.00000000E+00  0.00000000E+00  0.00000000E+00
  0.00000000E+00  0.00000000E+00  0.00000000E+00
  0.00000000E+00  0.00000000E+00  0.00000000E+00
  0.00000000E+00  0.00000000E+00  0.00000000E+00
  0.00000000E+00  0.00000000E+00  0.00000000E+00
  0.00000000E+00  0.00000000E+00  0.00000000E+00
  0.00000000E+00  0.00000000E+00  0.00000000E+00
  0.00000000E+00  0.00000000E+00  0.00000000E+00
  0.00000000E+00  0.00000000E+00  0.00000000E+00
  0.00000000E+00  0.00000000E+00  0.00000000E+00
