Sodilite                                
   1.00000000000000     
     9.0385956141102373   -0.0002475844401977    0.0321423672150040
    -0.0002452078999848    9.0332134391242445    0.0002452078999848
     0.0321423672150040    0.0002475844401977    9.0385956141102373
   O    Na   Al   Si   Cl   K 
    24     6     6     6     2     2
Direct
  0.1358490872812231  0.4541485486405099  0.1462465501199076
  0.8525747502178521  0.5610974699426939  0.1545328690302761
  0.8663293227948210  0.4415607104829545  0.8554248869129739
  0.1448839111694964  0.5618416332698086  0.8437511804642227
  0.1443193592491086  0.1384495625171170  0.4515677024058729
  0.1562576678031858  0.8554127629364398  0.5584757110073038
  0.8540251208479331  0.8669576422651978  0.4416086580949444
  0.8450115878654585  0.1456997428968089  0.5616016594449359
  0.4501569404828257  0.1485443430983512  0.1352901960638616
  0.5621928460337406  0.1573007015095175  0.8548690405573810
  0.4429247451160880  0.8580128499098824  0.8639757441950736
  0.5578020716460298  0.8462067257066486  0.1453759681011131
  0.9383983405550641  0.6456997428968085  0.6549884121345415
  0.0583913419050555  0.3669576422651973  0.6459748791520669
  0.9415242889926962  0.3554127629364395  0.3437423321968143
  0.0484322975941271  0.6384495625171168  0.3556806407508914
  0.6451309594426190  0.6573007015095176  0.9378071539662594
  0.3647098039361384  0.6485443430983512  0.0498430595171745
  0.3546240318988870  0.3462067257066482  0.9421979283539702
  0.6360242558049264  0.3580128499098815  0.0570752548839117
  0.6445751130870261  0.9415607104829543  0.6336706772051790
  0.6562488195357773  0.0618416332698084  0.3551160888305034
  0.3537534498800922  0.9541485486405099  0.3641509127187768
  0.3454671309697240  0.0610974699426936  0.6474252497821479
  0.8145493662751275  0.8165690700157910  0.1838218696614695
  0.8133100955881855  0.1887562590397562  0.8127727230644273
  0.1850820298123612  0.8174047032238415  0.8150421378977114
  0.6872272769355727  0.6887562590397560  0.6866899044118145
  0.3161781303385303  0.3165690700157910  0.6854506337248725
  0.6849578621022886  0.3174047032238417  0.3149179701876385
  0.2499230131723718  0.5027844254756815 -0.0039002211877940
  0.7500838220927135  0.5053056739052051 -0.0007652406385776
 -0.0036681126005901  0.2534495558300427  0.5009523504278300
 -0.0009523504278298  0.7534495558300425  0.5036681126005897
  0.5039002211877941  0.0027844254756812  0.2500769868276284
  0.5007652406385776  0.0053056739052051  0.7499161779072865
  0.2500044773144354  0.0026989448004888  0.5050059570055897
  0.7499715468114436  0.0046055191189408  0.4991018177672294
  0.5010153457113560  0.2532188743633887 -0.0030660136710215
  0.5030660136710216  0.7532188743633884 -0.0010153457113557
 -0.0050059570055893  0.5026989448004885  0.2499955226855648
  0.0008981822327707  0.5046055191189402  0.7500284531885564
 -0.0393684945232554 -0.0344183961692695 -0.0396345778543630
  0.5396345778543632  0.4655816038307307  0.5393684945232553
  0.1528606425959919  0.1543926772202054  0.1540401738875375
  0.3459598261124627  0.6543926772202053  0.3471393574040081
 
  0.00000000E+00  0.00000000E+00  0.00000000E+00
  0.00000000E+00  0.00000000E+00  0.00000000E+00
  0.00000000E+00  0.00000000E+00  0.00000000E+00
  0.00000000E+00  0.00000000E+00  0.00000000E+00
  0.00000000E+00  0.00000000E+00  0.00000000E+00
  0.00000000E+00  0.00000000E+00  0.00000000E+00
  0.00000000E+00  0.00000000E+00  0.00000000E+00
  0.00000000E+00  0.00000000E+00  0.00000000E+00
  0.00000000E+00  0.00000000E+00  0.00000000E+00
  0.00000000E+00  0.00000000E+00  0.00000000E+00
  0.00000000E+00  0.00000000E+00  0.00000000E+00
  0.00000000E+00  0.00000000E+00  0.00000000E+00
  0.00000000E+00  0.00000000E+00  0.00000000E+00
  0.00000000E+00  0.00000000E+00  0.00000000E+00
  0.00000000E+00  0.00000000E+00  0.00000000E+00
  0.00000000E+00  0.00000000E+00  0.00000000E+00
  0.00000000E+00  0.00000000E+00  0.00000000E+00
  0.00000000E+00  0.00000000E+00  0.00000000E+00
  0.00000000E+00  0.00000000E+00  0.00000000E+00
  0.00000000E+00  0.00000000E+00  0.00000000E+00
  0.00000000E+00  0.00000000E+00  0.00000000E+00
  0.00000000E+00  0.00000000E+00  0.00000000E+00
  0.00000000E+00  0.00000000E+00  0.00000000E+00
  0.00000000E+00  0.00000000E+00  0.00000000E+00
  0.00000000E+00  0.00000000E+00  0.00000000E+00
  0.00000000E+00  0.00000000E+00  0.00000000E+00
  0.00000000E+00  0.00000000E+00  0.00000000E+00
  0.00000000E+00  0.00000000E+00  0.00000000E+00
  0.00000000E+00  0.00000000E+00  0.00000000E+00
  0.00000000E+00  0.00000000E+00  0.00000000E+00
  0.00000000E+00  0.00000000E+00  0.00000000E+00
  0.00000000E+00  0.00000000E+00  0.00000000E+00
  0.00000000E+00  0.00000000E+00  0.00000000E+00
  0.00000000E+00  0.00000000E+00  0.00000000E+00
  0.00000000E+00  0.00000000E+00  0.00000000E+00
  0.00000000E+00  0.00000000E+00  0.00000000E+00
  0.00000000E+00  0.00000000E+00  0.00000000E+00
  0.00000000E+00  0.00000000E+00  0.00000000E+00
  0.00000000E+00  0.00000000E+00  0.00000000E+00
  0.00000000E+00  0.00000000E+00  0.00000000E+00
  0.00000000E+00  0.00000000E+00  0.00000000E+00
  0.00000000E+00  0.00000000E+00  0.00000000E+00
  0.00000000E+00  0.00000000E+00  0.00000000E+00
  0.00000000E+00  0.00000000E+00  0.00000000E+00
  0.00000000E+00  0.00000000E+00  0.00000000E+00
  0.00000000E+00  0.00000000E+00  0.00000000E+00
