Sodilite                                
   1.00000000000000     
     9.1581220457885237    0.0000000000000000    0.0578875653676396
     0.0000000000000000    9.1622105109963812    0.0000000000000000
     0.0578875653676396    0.0000000000000000    9.1581220457885237
   O    Na   Al   Si   Cl   K 
    24     4     6     6     2     4
Direct
  0.1305610702829461  0.4639111363354883  0.1415310923869145
  0.8455746179554746  0.5546138077146296  0.1629068790020267
  0.8694389297170544  0.4639111363354883  0.8584689076130853
  0.1544253820445256  0.5546138077146296  0.8370931209979735
  0.1501566880728813  0.1457853244242090  0.4569412879018148
  0.1538211704760120  0.8611768492891893  0.5487091243892693
  0.8461788295239882  0.8611768492891893  0.4512908756107302
  0.8498433119271186  0.1457853244242090  0.5430587120981852
  0.4552661489626915  0.1571310687120838  0.1416428264450147
  0.5447338510373081  0.1571310687120838  0.8583571735549852
  0.4531519466976209  0.8532845853234290  0.8566975886036837
  0.5468480533023792  0.8532845853234290  0.1433024113963164
  0.9569412879018148  0.6457853244242093  0.6501566880728814
  0.0487091243892699  0.3611768492891887  0.6538211704760118
  0.9512908756107307  0.3611768492891887  0.3461788295239882
  0.0430587120981852  0.6457853244242093  0.3498433119271187
  0.6416428264450148  0.6571310687120839  0.9552661489626919
  0.3583571735549855  0.6571310687120839  0.0447338510373085
  0.3566975886036836  0.3532845853234289  0.9531519466976208
  0.6433024113963163  0.3532845853234289  0.0468480533023792
  0.6415310923869147  0.9639111363354881  0.6305610702829456
  0.6629068790020265  0.0546138077146298  0.3455746179554745
  0.3584689076130853  0.9639111363354881  0.3694389297170539
  0.3370931209979733  0.0546138077146298  0.6544253820445254
  0.8053652866544693  0.8096655621313723  0.1931632632126742
  0.1946347133455311  0.8096655621313723  0.8068367367873258
  0.3068367367873259  0.3096655621313728  0.6946347133455307
  0.6931632632126742  0.3096655621313728  0.3053652866544689
  0.2495979176424757  0.5082835540201961 -0.0035366869253460
  0.7504020823575240  0.5082835540201961  0.0035366869253460
  0.0000000000000000  0.2568723947451512  0.5000000000000000
  0.0000000000000000  0.7568723947451508  0.5000000000000000
  0.5035366869253463  0.0082835540201958  0.2504020823575243
  0.4964633130746540  0.0082835540201958  0.7495979176424760
  0.2501026777582988  0.0074377470649631  0.5059861719657425
  0.7498973222417010  0.0074377470649631  0.4940138280342576
  0.5000000000000000  0.2566337605732767  0.0000000000000000
  0.5000000000000000  0.7566337605732771  0.0000000000000000
 -0.0059861719657424  0.5074377470649631  0.2498973222417012
  0.0059861719657424  0.5074377470649631  0.7501026777582990
  0.0000000000000000 -0.0691799237520044  0.0000000000000000
  0.5000000000000000  0.4308200762479956  0.5000000000000000
  0.1629104714358352  0.1665472492012283  0.1642712427444779
  0.8370895285641646  0.1665472492012283  0.8357287572555219
  0.6642712427444781  0.6665472492012282  0.6629104714358354
  0.3357287572555221  0.6665472492012282  0.3370895285641648
 
  0.00000000E+00  0.00000000E+00  0.00000000E+00
  0.00000000E+00  0.00000000E+00  0.00000000E+00
  0.00000000E+00  0.00000000E+00  0.00000000E+00
  0.00000000E+00  0.00000000E+00  0.00000000E+00
  0.00000000E+00  0.00000000E+00  0.00000000E+00
  0.00000000E+00  0.00000000E+00  0.00000000E+00
  0.00000000E+00  0.00000000E+00  0.00000000E+00
  0.00000000E+00  0.00000000E+00  0.00000000E+00
  0.00000000E+00  0.00000000E+00  0.00000000E+00
  0.00000000E+00  0.00000000E+00  0.00000000E+00
  0.00000000E+00  0.00000000E+00  0.00000000E+00
  0.00000000E+00  0.00000000E+00  0.00000000E+00
  0.00000000E+00  0.00000000E+00  0.00000000E+00
  0.00000000E+00  0.00000000E+00  0.00000000E+00
  0.00000000E+00  0.00000000E+00  0.00000000E+00
  0.00000000E+00  0.00000000E+00  0.00000000E+00
  0.00000000E+00  0.00000000E+00  0.00000000E+00
  0.00000000E+00  0.00000000E+00  0.00000000E+00
  0.00000000E+00  0.00000000E+00  0.00000000E+00
  0.00000000E+00  0.00000000E+00  0.00000000E+00
  0.00000000E+00  0.00000000E+00  0.00000000E+00
  0.00000000E+00  0.00000000E+00  0.00000000E+00
  0.00000000E+00  0.00000000E+00  0.00000000E+00
  0.00000000E+00  0.00000000E+00  0.00000000E+00
  0.00000000E+00  0.00000000E+00  0.00000000E+00
  0.00000000E+00  0.00000000E+00  0.00000000E+00
  0.00000000E+00  0.00000000E+00  0.00000000E+00
  0.00000000E+00  0.00000000E+00  0.00000000E+00
  0.00000000E+00  0.00000000E+00  0.00000000E+00
  0.00000000E+00  0.00000000E+00  0.00000000E+00
  0.00000000E+00  0.00000000E+00  0.00000000E+00
  0.00000000E+00  0.00000000E+00  0.00000000E+00
  0.00000000E+00  0.00000000E+00  0.00000000E+00
  0.00000000E+00  0.00000000E+00  0.00000000E+00
  0.00000000E+00  0.00000000E+00  0.00000000E+00
  0.00000000E+00  0.00000000E+00  0.00000000E+00
  0.00000000E+00  0.00000000E+00  0.00000000E+00
  0.00000000E+00  0.00000000E+00  0.00000000E+00
  0.00000000E+00  0.00000000E+00  0.00000000E+00
  0.00000000E+00  0.00000000E+00  0.00000000E+00
  0.00000000E+00  0.00000000E+00  0.00000000E+00
  0.00000000E+00  0.00000000E+00  0.00000000E+00
  0.00000000E+00  0.00000000E+00  0.00000000E+00
  0.00000000E+00  0.00000000E+00  0.00000000E+00
  0.00000000E+00  0.00000000E+00  0.00000000E+00
  0.00000000E+00  0.00000000E+00  0.00000000E+00
