Sodilite                                
   1.00000000000000     
     9.2278712051791754    0.0352990574905982   -0.0129417068406609
     0.0353141941952372    9.2274517627838257    0.0144265937149284
    -0.0129340955262202    0.0144179855761546    9.2275257227851082
   O    Na   Al   Si   Cl   K 
    24     3     6     6     2     5
Direct
  0.1506242272992585  0.4604877791520466  0.1641490106552704
  0.8658355249157051  0.5365508936912978  0.1489941823220261
  0.8492907435123053  0.4560962438119761  0.8442621663373937
  0.1379126221508178  0.5299693183875132  0.8587488087400797
  0.1493124112723112  0.1372750289420405  0.4676887561162062
  0.1586325790883077  0.8495737170954781  0.5375325258531559
  0.8528349827216923  0.8621712258020845  0.4681306312235105
  0.8430928584487621  0.1486172966476123  0.5481352368051177
  0.4648033935456481  0.1423824861160268  0.1379431731191406
  0.5452854762938486  0.1604114914879557  0.8528814210096839
  0.4682583641698712  0.8514938236154241  0.8672980184586070
  0.5383230066990963  0.8401720737284076  0.1545882150662330
  0.9646260613287899  0.6437303283468556  0.6597641882027130
  0.0383103840083692  0.3583302346499642  0.6531270179259584
  0.9568042280876463  0.3537217972387333  0.3493053047918697
  0.0398502579675839  0.6412503952108183  0.3519576770579274
  0.6354862170989650  0.6419638428549592  0.9692772225057960
  0.3479909237313433  0.6604539075172317  0.0444077208658238
  0.3677946938173318  0.3535904627524998  0.9681559628924002
  0.6528136141085251  0.3380606637386977  0.0503581224543331
  0.6498537337671580  0.9623282968516003  0.6428315932990949
  0.6574349300408631  0.0451023378805331  0.3578942173157280
  0.3495431544899056  0.9592983133951405  0.3602740750482780
  0.3474651652069106  0.0334898083338431  0.6487058803740255
  0.7975696135565437  0.2036514740185448  0.7979859869531715
  0.6988242982086295  0.3026723080180516  0.3028319263081944
  0.3090190177666642  0.6911978449466590  0.3067223266821483
  0.2521581653518989  0.4994070381477865  0.0088109878672328
  0.7511433387019789  0.4939779352222801  0.0044649140937871
 -0.0014402687540731  0.2486527669584271  0.5045810429873405
  0.0022679710465888  0.7482463427213376  0.5052028147629950
  0.5035288697419293 -0.0024479669636856  0.2550586166561212
  0.5028461463612329  0.0014754408591581  0.7555265324822498
  0.2516800863228889 -0.0042020597746159  0.5042966068668002
  0.7511627545515777  0.0035582146376935  0.5046773812147036
  0.5073160198116455  0.2486135345943527  0.0034749185620790
  0.4987378722179532  0.7480773195538425  0.0090739683553387
  0.0028978798173359  0.4973987233588189  0.2546003915551591
 -0.0020062438809986  0.4968101093405918  0.7550952438328551
 -0.0367588511428845  0.0368422727741453 -0.0330471117569558
  0.5039058711079092  0.4962648492111795  0.4359077186566521
  0.1749682947302304  0.1706519222198803  0.1744388355411018
  0.8285655031375934  0.8261319734559174  0.1749702338160777
  0.1719876637769033  0.8267860873610113  0.8307535723401321
  0.6675297887003643  0.6686166580480243  0.6694797641646950
  0.3319166550970745  0.3310954440418569  0.6686821996177468
 
  0.00000000E+00  0.00000000E+00  0.00000000E+00
  0.00000000E+00  0.00000000E+00  0.00000000E+00
  0.00000000E+00  0.00000000E+00  0.00000000E+00
  0.00000000E+00  0.00000000E+00  0.00000000E+00
  0.00000000E+00  0.00000000E+00  0.00000000E+00
  0.00000000E+00  0.00000000E+00  0.00000000E+00
  0.00000000E+00  0.00000000E+00  0.00000000E+00
  0.00000000E+00  0.00000000E+00  0.00000000E+00
  0.00000000E+00  0.00000000E+00  0.00000000E+00
  0.00000000E+00  0.00000000E+00  0.00000000E+00
  0.00000000E+00  0.00000000E+00  0.00000000E+00
  0.00000000E+00  0.00000000E+00  0.00000000E+00
  0.00000000E+00  0.00000000E+00  0.00000000E+00
  0.00000000E+00  0.00000000E+00  0.00000000E+00
  0.00000000E+00  0.00000000E+00  0.00000000E+00
  0.00000000E+00  0.00000000E+00  0.00000000E+00
  0.00000000E+00  0.00000000E+00  0.00000000E+00
  0.00000000E+00  0.00000000E+00  0.00000000E+00
  0.00000000E+00  0.00000000E+00  0.00000000E+00
  0.00000000E+00  0.00000000E+00  0.00000000E+00
  0.00000000E+00  0.00000000E+00  0.00000000E+00
  0.00000000E+00  0.00000000E+00  0.00000000E+00
  0.00000000E+00  0.00000000E+00  0.00000000E+00
  0.00000000E+00  0.00000000E+00  0.00000000E+00
  0.00000000E+00  0.00000000E+00  0.00000000E+00
  0.00000000E+00  0.00000000E+00  0.00000000E+00
  0.00000000E+00  0.00000000E+00  0.00000000E+00
  0.00000000E+00  0.00000000E+00  0.00000000E+00
  0.00000000E+00  0.00000000E+00  0.00000000E+00
  0.00000000E+00  0.00000000E+00  0.00000000E+00
  0.00000000E+00  0.00000000E+00  0.00000000E+00
  0.00000000E+00  0.00000000E+00  0.00000000E+00
  0.00000000E+00  0.00000000E+00  0.00000000E+00
  0.00000000E+00  0.00000000E+00  0.00000000E+00
  0.00000000E+00  0.00000000E+00  0.00000000E+00
  0.00000000E+00  0.00000000E+00  0.00000000E+00
  0.00000000E+00  0.00000000E+00  0.00000000E+00
  0.00000000E+00  0.00000000E+00  0.00000000E+00
  0.00000000E+00  0.00000000E+00  0.00000000E+00
  0.00000000E+00  0.00000000E+00  0.00000000E+00
  0.00000000E+00  0.00000000E+00  0.00000000E+00
  0.00000000E+00  0.00000000E+00  0.00000000E+00
  0.00000000E+00  0.00000000E+00  0.00000000E+00
  0.00000000E+00  0.00000000E+00  0.00000000E+00
  0.00000000E+00  0.00000000E+00  0.00000000E+00
  0.00000000E+00  0.00000000E+00  0.00000000E+00
