Sodilite                                
   1.00000000000000     
     9.1830350240362080   -0.0240305764215250    0.0255961726704001
    -0.0240295403792517    9.1741801933254177    0.0027626479027648
     0.0255920079088079    0.0027601687779192    9.1729694757542592
   O    Na   Al   Si   Cl   K 
    24     4     6     6     2     4
Direct
  0.1394773542447065  0.4546174548878606  0.1460988547344060
  0.8531534402788471  0.5457183724692771  0.1533545641827327
  0.8612731834284627  0.4628279540905576  0.8470422976229444
  0.1450058967823444  0.5534738829308425  0.8432292565306015
  0.1540264158305779  0.1463329924963829  0.4472825238621020
  0.1505970494252450  0.8632248969018791  0.5463316492086439
  0.8440778028817949  0.8547684120194056  0.4533695159668666
  0.8519441307284973  0.1419684165705781  0.5362217389394446
  0.4502286232352903  0.1625961222004421  0.1471499234324745
  0.5403704522816710  0.1462826495350470  0.8636916584742528
  0.4520348046612873  0.8445804544423759  0.8484825959643212
  0.5415233807557224  0.8553969105821218  0.1354370231053361
  0.9625048622253880  0.6361478856937807  0.6392817489739135
  0.0484998366782106  0.3509130168147340  0.6589339007107571
  0.9611630068701895  0.3683984729009291  0.3534855433388203
  0.0429328682980415  0.6534577566814440  0.3363416884763334
  0.6496287663948664  0.6628912126334185  0.9567903062090799
  0.3647070519066332  0.6468632574478067  0.0385306190249105
  0.3485741799883814  0.3437124211476520  0.9491407562815397
  0.6347277589096029  0.3568447091174690  0.0345646807724883
  0.6458932772033418  0.9652012707854268  0.6338312240615764
  0.6585336661668987  0.0418794518355167  0.3461304519436353
  0.3559170089534104  0.9612585301592655  0.3645757967068854
  0.3395750879330316  0.0523852646973633  0.6478434452290343
  0.1923637823806877  0.1918643389639469  0.1912814257803958
  0.8181149340533670  0.8130376221233165  0.1868131604162438
  0.1938460120940608  0.8090612793231067  0.8093263752159243
  0.2945586933182635  0.2963550932605750  0.7047606075947209
  0.2492065408006001  0.5013799644536490 -0.0055855915610284
  0.7499735893643171  0.5059924410637195 -0.0034003252826532
  0.0038608139234900  0.2531143930137833  0.4986801143964147
  0.0016043921327413  0.7538958723700189  0.4938877742423550
  0.4999620158019866  0.0058274119616000  0.2463341515439023
  0.4956315310683230  0.0029063853378561  0.7468523227230286
  0.2498448142012721  0.0060203774014092  0.5003184854153295
  0.7502431362834318  0.0019823932027380  0.4928543759363894
  0.4941353988145041  0.2530299985909215 -0.0021894354464508
  0.5010950106891547  0.7533487774598665 -0.0055446577794243
  0.0000810169915154  0.5056126995298075  0.2464999558456861
  0.0043304221769896  0.5013505155490572  0.7467038764379651
  0.0356671420739664 -0.0282457915637108  0.0285737213810321
  0.4585103976893377  0.4624731758741223  0.5377177892031570
  0.8372732718743994  0.1620320574523655  0.8372892729632727
  0.6713214195489160  0.6709685012771605  0.6656812749751849
  0.6701435386026953  0.3333222835178394  0.3286571547259785
  0.3318622200535348  0.6729284407952757  0.3273464075194789
 
  0.00000000E+00  0.00000000E+00  0.00000000E+00
  0.00000000E+00  0.00000000E+00  0.00000000E+00
  0.00000000E+00  0.00000000E+00  0.00000000E+00
  0.00000000E+00  0.00000000E+00  0.00000000E+00
  0.00000000E+00  0.00000000E+00  0.00000000E+00
  0.00000000E+00  0.00000000E+00  0.00000000E+00
  0.00000000E+00  0.00000000E+00  0.00000000E+00
  0.00000000E+00  0.00000000E+00  0.00000000E+00
  0.00000000E+00  0.00000000E+00  0.00000000E+00
  0.00000000E+00  0.00000000E+00  0.00000000E+00
  0.00000000E+00  0.00000000E+00  0.00000000E+00
  0.00000000E+00  0.00000000E+00  0.00000000E+00
  0.00000000E+00  0.00000000E+00  0.00000000E+00
  0.00000000E+00  0.00000000E+00  0.00000000E+00
  0.00000000E+00  0.00000000E+00  0.00000000E+00
  0.00000000E+00  0.00000000E+00  0.00000000E+00
  0.00000000E+00  0.00000000E+00  0.00000000E+00
  0.00000000E+00  0.00000000E+00  0.00000000E+00
  0.00000000E+00  0.00000000E+00  0.00000000E+00
  0.00000000E+00  0.00000000E+00  0.00000000E+00
  0.00000000E+00  0.00000000E+00  0.00000000E+00
  0.00000000E+00  0.00000000E+00  0.00000000E+00
  0.00000000E+00  0.00000000E+00  0.00000000E+00
  0.00000000E+00  0.00000000E+00  0.00000000E+00
  0.00000000E+00  0.00000000E+00  0.00000000E+00
  0.00000000E+00  0.00000000E+00  0.00000000E+00
  0.00000000E+00  0.00000000E+00  0.00000000E+00
  0.00000000E+00  0.00000000E+00  0.00000000E+00
  0.00000000E+00  0.00000000E+00  0.00000000E+00
  0.00000000E+00  0.00000000E+00  0.00000000E+00
  0.00000000E+00  0.00000000E+00  0.00000000E+00
  0.00000000E+00  0.00000000E+00  0.00000000E+00
  0.00000000E+00  0.00000000E+00  0.00000000E+00
  0.00000000E+00  0.00000000E+00  0.00000000E+00
  0.00000000E+00  0.00000000E+00  0.00000000E+00
  0.00000000E+00  0.00000000E+00  0.00000000E+00
  0.00000000E+00  0.00000000E+00  0.00000000E+00
  0.00000000E+00  0.00000000E+00  0.00000000E+00
  0.00000000E+00  0.00000000E+00  0.00000000E+00
  0.00000000E+00  0.00000000E+00  0.00000000E+00
  0.00000000E+00  0.00000000E+00  0.00000000E+00
  0.00000000E+00  0.00000000E+00  0.00000000E+00
  0.00000000E+00  0.00000000E+00  0.00000000E+00
  0.00000000E+00  0.00000000E+00  0.00000000E+00
  0.00000000E+00  0.00000000E+00  0.00000000E+00
  0.00000000E+00  0.00000000E+00  0.00000000E+00
