Sodilite                                
   1.00000000000000     
     9.3015080988476431   -0.0214055740694394    0.0000000000000000
    -0.0213966707134796    9.3007804910782639    0.0000000000000000
     0.0000000000000000    0.0000000000000000    9.3096239340785072
   O    Na   Al   Si   Cl   K 
    24     2     6     6     2     6
Direct
  0.1440477068846790  0.4651040592962786  0.1514480428288811
  0.8559522931153213  0.5348959407037215  0.1514480428288811
  0.8561569424705434  0.4724115608424095  0.8446677945623162
  0.1438430575294565  0.5275884391575906  0.8446677945623162
  0.1614658982269638  0.1525792750224388  0.4620897874773310
  0.1449814710084260  0.8649777311742149  0.5248643982386483
  0.8385341017730354  0.8474207249775608  0.4620897874773310
  0.8550185289915739  0.1350222688257853  0.5248643982386483
  0.4638925786228909  0.1538847087301348  0.1425368161925922
  0.5265456876622551  0.1526062838394394  0.8546108706102069
  0.4734543123377445  0.8473937161605603  0.8546108706102069
  0.5361074213771088  0.8461152912698655  0.1425368161925922
  0.9741679432944923  0.6449260981493364  0.6503421786464559
  0.0258320567055076  0.3550739018506639  0.6503421786464559
  0.9702525282920291  0.3564833245407448  0.3438385939019555
  0.0297474717079707  0.6435166754592549  0.3438385939019555
  0.6429965422176533  0.6511645378855960  0.9706828209647458
  0.3547162245049528  0.6556740984068608  0.0264812840768957
  0.3570034577823462  0.3488354621144039  0.9706828209647458
  0.6452837754950471  0.3443259015931394  0.0264812840768957
  0.6543932246103515  0.9729355866824427  0.6410966072103507
  0.6525291456632293  0.0287198763392051  0.3530804088890571
  0.3474708543367705  0.9712801236607946  0.3530804088890571
  0.3456067753896485  0.0270644133175571  0.6410966072103507
  0.1973525812533419  0.1972781356507721  0.2016798549650036
  0.8026474187466575  0.8027218643492285  0.2016798549650036
  0.2495953456250107  0.5001922454419275 -0.0016890417449880
  0.7504046543749894  0.4998077545580723 -0.0016890417449880
  0.0022077896376238  0.2494339441166673  0.4951115944938594
 -0.0022077896376238  0.7505660558833329  0.4951115944938594
  0.5000000000000000 -0.0000000000000000  0.2462439835062856
  0.5000000000000000 -0.0000000000000000  0.7465789710087095
  0.2496944760137806  0.0033157926129271  0.4950406554823307
  0.7503055239862199 -0.0033157926129271  0.4950406554823307
  0.4986493907697301  0.2497592444860980 -0.0016141953220043
  0.5013506092302695  0.7502407555139026 -0.0016141953220043
  0.0000000000000000  0.5000000000000000  0.2469485724178770
  0.0000000000000000  0.5000000000000000  0.7469445637942348
  0.0000000000000000 -0.0000000000000000  0.0612208385405019
  0.5000000000000000  0.5000000000000000  0.4944622844877969
  0.8275074104185171  0.1718464517048010  0.8282907527336395
  0.1724925895814832  0.8281535482951994  0.8282907527336395
  0.6820061724276845  0.6812623960208081  0.6814597674771198
  0.3179938275723155  0.3187376039791917  0.6814597674771198
  0.6843173471052177  0.3150745462326575  0.3147814014379021
  0.3156826528947819  0.6849254537673428  0.3147814014379021
 
  0.00000000E+00  0.00000000E+00  0.00000000E+00
  0.00000000E+00  0.00000000E+00  0.00000000E+00
  0.00000000E+00  0.00000000E+00  0.00000000E+00
  0.00000000E+00  0.00000000E+00  0.00000000E+00
  0.00000000E+00  0.00000000E+00  0.00000000E+00
  0.00000000E+00  0.00000000E+00  0.00000000E+00
  0.00000000E+00  0.00000000E+00  0.00000000E+00
  0.00000000E+00  0.00000000E+00  0.00000000E+00
  0.00000000E+00  0.00000000E+00  0.00000000E+00
  0.00000000E+00  0.00000000E+00  0.00000000E+00
  0.00000000E+00  0.00000000E+00  0.00000000E+00
  0.00000000E+00  0.00000000E+00  0.00000000E+00
  0.00000000E+00  0.00000000E+00  0.00000000E+00
  0.00000000E+00  0.00000000E+00  0.00000000E+00
  0.00000000E+00  0.00000000E+00  0.00000000E+00
  0.00000000E+00  0.00000000E+00  0.00000000E+00
  0.00000000E+00  0.00000000E+00  0.00000000E+00
  0.00000000E+00  0.00000000E+00  0.00000000E+00
  0.00000000E+00  0.00000000E+00  0.00000000E+00
  0.00000000E+00  0.00000000E+00  0.00000000E+00
  0.00000000E+00  0.00000000E+00  0.00000000E+00
  0.00000000E+00  0.00000000E+00  0.00000000E+00
  0.00000000E+00  0.00000000E+00  0.00000000E+00
  0.00000000E+00  0.00000000E+00  0.00000000E+00
  0.00000000E+00  0.00000000E+00  0.00000000E+00
  0.00000000E+00  0.00000000E+00  0.00000000E+00
  0.00000000E+00  0.00000000E+00  0.00000000E+00
  0.00000000E+00  0.00000000E+00  0.00000000E+00
  0.00000000E+00  0.00000000E+00  0.00000000E+00
  0.00000000E+00  0.00000000E+00  0.00000000E+00
  0.00000000E+00  0.00000000E+00  0.00000000E+00
  0.00000000E+00  0.00000000E+00  0.00000000E+00
  0.00000000E+00  0.00000000E+00  0.00000000E+00
  0.00000000E+00  0.00000000E+00  0.00000000E+00
  0.00000000E+00  0.00000000E+00  0.00000000E+00
  0.00000000E+00  0.00000000E+00  0.00000000E+00
  0.00000000E+00  0.00000000E+00  0.00000000E+00
  0.00000000E+00  0.00000000E+00  0.00000000E+00
  0.00000000E+00  0.00000000E+00  0.00000000E+00
  0.00000000E+00  0.00000000E+00  0.00000000E+00
  0.00000000E+00  0.00000000E+00  0.00000000E+00
  0.00000000E+00  0.00000000E+00  0.00000000E+00
  0.00000000E+00  0.00000000E+00  0.00000000E+00
  0.00000000E+00  0.00000000E+00  0.00000000E+00
  0.00000000E+00  0.00000000E+00  0.00000000E+00
  0.00000000E+00  0.00000000E+00  0.00000000E+00
