Sodilite                                
   1.00000000000000     
     8.9801492556643669    0.0155247777759711   -0.0155247747059318
     0.0155247747059318    8.9801492556643669   -0.0155247777759711
    -0.0155247777759711   -0.0155247747059318    8.9801492556643669
   O    Na   Al   Si   Cl   K 
    24     7     6     6     2     1
Direct
  0.1443920661620428  0.4349606725628570  0.1561962145450024
  0.8642736578086633  0.5526888889828897  0.1459976776470766
  0.8547398201513239  0.4355972089806449  0.8465570527759837
  0.1331322012492127  0.5605999688851731  0.8569449691142973
  0.1430550308857026  0.1331322012492127  0.4394000311148266
  0.1534429472240167  0.8547398201513239  0.5644027910193550
  0.8540023223529236  0.8642736578086633  0.4473111110171102
  0.8438037854549981  0.1443920661620428  0.5650393274371425
  0.4355972089806449  0.1534429472240167  0.1452601798486761
  0.5605999688851731  0.1430550308857026  0.8668677987507870
  0.4349606725628570  0.8438037854549981  0.8556079338379570
  0.5526888889828897  0.8540023223529236  0.1357263421913366
  0.9363109987754735  0.6386556806392033  0.6520189915881967
  0.0633384518776878  0.3611119867405416  0.6500455347345777
  0.9374661301675080  0.3582352707529776  0.3524476602139739
  0.0595485791241854  0.6387774865028620  0.3510177725218157
  0.6387774865028620  0.6489822274781845  0.9404514208758141
  0.3582352707529776  0.6475523397860256  0.0625338698324924
  0.3611119867405416  0.3499544652654217  0.9366615481223115
  0.6386556806392033  0.3479810084118028  0.0636890012245265
  0.6475523397860256  0.9374661301675080  0.6417647292470223
  0.6489822274781845  0.0595485791241854  0.3612225134971378
  0.3479810084118028  0.9363109987754735  0.3613443193607967
  0.3499544652654217  0.0633384518776878  0.6388880132594584
  0.1829322616479527  0.1823688953186522  0.1851762494916021
  0.8148237505083976  0.1829322616479527  0.8176311046813476
  0.1823688953186522  0.8148237505083976  0.8170677383520472
  0.6764089332128826  0.6775823614018138  0.6792694733821689
  0.3192502857824335  0.3192502857824335  0.6807497142175666
  0.6775823614018138  0.3207305266178311  0.3235910667871176
  0.3207305266178311  0.6764089332128826  0.3224176385981862
  0.2484568241429986  0.4966830820198614  0.0025680935486528
  0.7480318119214845  0.4965160060791079 -0.0003122492125094
 -0.0025680935486528  0.2484568241429986  0.5033169179801386
  0.0003122492125094  0.7480318119214845  0.5034839939208924
  0.4965160060791079  0.0003122492125094  0.2519681880785156
  0.4966830820198614 -0.0025680935486528  0.7515431758570013
  0.2483454838332806 -0.0029016355287704  0.5019613418035335
  0.7481165146503577  0.0009243414956799  0.5039236299087657
  0.4980386581964669  0.2483454838332806  0.0029016355287704
  0.4960763700912341  0.7481165146503577 -0.0009243414956799
  0.0009243414956799  0.4960763700912341  0.2518834853496421
 -0.0029016355287704  0.4980386581964669  0.7516545161667191
  0.0401323968732586  0.0401323968732586 -0.0401323968732586
  0.4978720372282546  0.4978720372282546  0.5021279627717455
  0.8492637426206443  0.8492637426206443  0.1507362573793561
 
  0.00000000E+00  0.00000000E+00  0.00000000E+00
  0.00000000E+00  0.00000000E+00  0.00000000E+00
  0.00000000E+00  0.00000000E+00  0.00000000E+00
  0.00000000E+00  0.00000000E+00  0.00000000E+00
  0.00000000E+00  0.00000000E+00  0.00000000E+00
  0.00000000E+00  0.00000000E+00  0.00000000E+00
  0.00000000E+00  0.00000000E+00  0.00000000E+00
  0.00000000E+00  0.00000000E+00  0.00000000E+00
  0.00000000E+00  0.00000000E+00  0.00000000E+00
  0.00000000E+00  0.00000000E+00  0.00000000E+00
  0.00000000E+00  0.00000000E+00  0.00000000E+00
  0.00000000E+00  0.00000000E+00  0.00000000E+00
  0.00000000E+00  0.00000000E+00  0.00000000E+00
  0.00000000E+00  0.00000000E+00  0.00000000E+00
  0.00000000E+00  0.00000000E+00  0.00000000E+00
  0.00000000E+00  0.00000000E+00  0.00000000E+00
  0.00000000E+00  0.00000000E+00  0.00000000E+00
  0.00000000E+00  0.00000000E+00  0.00000000E+00
  0.00000000E+00  0.00000000E+00  0.00000000E+00
  0.00000000E+00  0.00000000E+00  0.00000000E+00
  0.00000000E+00  0.00000000E+00  0.00000000E+00
  0.00000000E+00  0.00000000E+00  0.00000000E+00
  0.00000000E+00  0.00000000E+00  0.00000000E+00
  0.00000000E+00  0.00000000E+00  0.00000000E+00
  0.00000000E+00  0.00000000E+00  0.00000000E+00
  0.00000000E+00  0.00000000E+00  0.00000000E+00
  0.00000000E+00  0.00000000E+00  0.00000000E+00
  0.00000000E+00  0.00000000E+00  0.00000000E+00
  0.00000000E+00  0.00000000E+00  0.00000000E+00
  0.00000000E+00  0.00000000E+00  0.00000000E+00
  0.00000000E+00  0.00000000E+00  0.00000000E+00
  0.00000000E+00  0.00000000E+00  0.00000000E+00
  0.00000000E+00  0.00000000E+00  0.00000000E+00
  0.00000000E+00  0.00000000E+00  0.00000000E+00
  0.00000000E+00  0.00000000E+00  0.00000000E+00
  0.00000000E+00  0.00000000E+00  0.00000000E+00
  0.00000000E+00  0.00000000E+00  0.00000000E+00
  0.00000000E+00  0.00000000E+00  0.00000000E+00
  0.00000000E+00  0.00000000E+00  0.00000000E+00
  0.00000000E+00  0.00000000E+00  0.00000000E+00
  0.00000000E+00  0.00000000E+00  0.00000000E+00
  0.00000000E+00  0.00000000E+00  0.00000000E+00
  0.00000000E+00  0.00000000E+00  0.00000000E+00
  0.00000000E+00  0.00000000E+00  0.00000000E+00
  0.00000000E+00  0.00000000E+00  0.00000000E+00
  0.00000000E+00  0.00000000E+00  0.00000000E+00
