Sodilite                                
   1.00000000000000     
     9.0995407115468492    0.0439866574479266   -0.0109817487274640
     0.0439755799655660    9.0976409268015317   -0.0116393568903929
    -0.0109962823129028   -0.0116501799882237    9.1019791805038768
   O    Na   Al   Si   Cl   K 
    24     5     6     6     2     3
Direct
  0.1403236126682252  0.4522273614234470  0.1557574274769615
  0.8570018841406353  0.5479574010526372  0.1550809863151845
  0.8575399370007201  0.4450219858412690  0.8540434895123226
  0.1402842957549146  0.5518705600599307  0.8514113371741832
  0.1387945943600114  0.1283092434106588  0.4615197475437248
  0.1613422540931260  0.8433694736062267  0.5579552936531192
  0.8604000148865104  0.8711840524676390  0.4574823391803722
  0.8340706772181097  0.1527805266377876  0.5594309591121738
  0.4538315122676496  0.1481111611031365  0.1451132436237483
  0.5523221421228893  0.1510136813706227  0.8605577688018297
  0.4433039743027850  0.8472131964275628  0.8617653570427203
  0.5478245845951019  0.8474632338589653  0.1433774915688086
  0.9404438549673808  0.6445809943139643  0.6601435700582782
  0.0466922370716455  0.3641253528840170  0.6496931828332726
  0.9472396803111504  0.3512192885985878  0.3481078156171720
  0.0487923790907929  0.6368153321518358  0.3576753861307576
  0.6355249536123566  0.6463186398687031  0.9482667462002737
  0.3530096874864503  0.6537488665585525  0.0569439361849634
  0.3618779309809649  0.3509455338865121  0.9575538648557096
  0.6457478689331757  0.3434427413602273  0.0575650083807931
  0.6533231979066770  0.9425666805116106  0.6487142095089294
  0.6470772504453826  0.0499718192011088  0.3663456377516977
  0.3406766163262806  0.9453213852300418  0.3558689922086040
  0.3543232094139256  0.0452967417032643  0.6387035688556465
  0.8053310341208972  0.1940464613795099  0.8105358658450710
  0.1927232346778518  0.8050680380469404  0.8093358093588928
  0.6876955225432462  0.6892295593026658  0.6898200005980629
  0.6871835112240507  0.3150631567020832  0.3165522225222657
  0.3136485102777466  0.6855199180987270  0.3162640153498033
  0.2482468411853281  0.5005065688893544  0.0050735412560567
  0.7479070648136991  0.4975743644530838  0.0049109406377107
 -0.0068210490945296  0.2479012686053731  0.5064226404218601
  0.0002594812793456  0.7483695336226710  0.5091795760210830
  0.4977750944776070 -0.0035157907802620  0.2557093057316290
  0.5003391109417730 -0.0031499059574272  0.7545967165247888
  0.2482034969097749 -0.0085946897618640  0.5049188267684462
  0.7484617650954708  0.0025679182682409  0.5087914014712128
  0.5024106786229751  0.2481796681140281  0.0054435115688032
  0.4957527136094487  0.7482374502549320  0.0035471059738593
 -0.0023935431747907  0.4972508963301553  0.2554725955143095
 -0.0037751732630301  0.5009714168295342  0.7546115122345266
 -0.0014532431692748 -0.0012689692558462 -0.0760704171424113
  0.5350788099359105  0.5354407837946612  0.4700461996669929
  0.1598779641091133  0.1583933940162155  0.1630201004344020
  0.8393899093468881  0.8398729036062463  0.1640788275721734
  0.3423899155736387  0.3414608019126683  0.6586623420792163
 
  0.00000000E+00  0.00000000E+00  0.00000000E+00
  0.00000000E+00  0.00000000E+00  0.00000000E+00
  0.00000000E+00  0.00000000E+00  0.00000000E+00
  0.00000000E+00  0.00000000E+00  0.00000000E+00
  0.00000000E+00  0.00000000E+00  0.00000000E+00
  0.00000000E+00  0.00000000E+00  0.00000000E+00
  0.00000000E+00  0.00000000E+00  0.00000000E+00
  0.00000000E+00  0.00000000E+00  0.00000000E+00
  0.00000000E+00  0.00000000E+00  0.00000000E+00
  0.00000000E+00  0.00000000E+00  0.00000000E+00
  0.00000000E+00  0.00000000E+00  0.00000000E+00
  0.00000000E+00  0.00000000E+00  0.00000000E+00
  0.00000000E+00  0.00000000E+00  0.00000000E+00
  0.00000000E+00  0.00000000E+00  0.00000000E+00
  0.00000000E+00  0.00000000E+00  0.00000000E+00
  0.00000000E+00  0.00000000E+00  0.00000000E+00
  0.00000000E+00  0.00000000E+00  0.00000000E+00
  0.00000000E+00  0.00000000E+00  0.00000000E+00
  0.00000000E+00  0.00000000E+00  0.00000000E+00
  0.00000000E+00  0.00000000E+00  0.00000000E+00
  0.00000000E+00  0.00000000E+00  0.00000000E+00
  0.00000000E+00  0.00000000E+00  0.00000000E+00
  0.00000000E+00  0.00000000E+00  0.00000000E+00
  0.00000000E+00  0.00000000E+00  0.00000000E+00
  0.00000000E+00  0.00000000E+00  0.00000000E+00
  0.00000000E+00  0.00000000E+00  0.00000000E+00
  0.00000000E+00  0.00000000E+00  0.00000000E+00
  0.00000000E+00  0.00000000E+00  0.00000000E+00
  0.00000000E+00  0.00000000E+00  0.00000000E+00
  0.00000000E+00  0.00000000E+00  0.00000000E+00
  0.00000000E+00  0.00000000E+00  0.00000000E+00
  0.00000000E+00  0.00000000E+00  0.00000000E+00
  0.00000000E+00  0.00000000E+00  0.00000000E+00
  0.00000000E+00  0.00000000E+00  0.00000000E+00
  0.00000000E+00  0.00000000E+00  0.00000000E+00
  0.00000000E+00  0.00000000E+00  0.00000000E+00
  0.00000000E+00  0.00000000E+00  0.00000000E+00
  0.00000000E+00  0.00000000E+00  0.00000000E+00
  0.00000000E+00  0.00000000E+00  0.00000000E+00
  0.00000000E+00  0.00000000E+00  0.00000000E+00
  0.00000000E+00  0.00000000E+00  0.00000000E+00
  0.00000000E+00  0.00000000E+00  0.00000000E+00
  0.00000000E+00  0.00000000E+00  0.00000000E+00
  0.00000000E+00  0.00000000E+00  0.00000000E+00
  0.00000000E+00  0.00000000E+00  0.00000000E+00
  0.00000000E+00  0.00000000E+00  0.00000000E+00
