Sodilite                                
   1.00000000000000     
     9.0997101779429972   -0.0109886766117612   -0.0116103977920446
    -0.0109701872882482    9.0995888489977794    0.0450141606910870
    -0.0115955829992322    0.0450023757575469    9.0976879344104589
   O    Na   Al   Si   Cl   K 
    24     5     6     6     2     3
Direct
  0.1450745168050756  0.4538074318427039  0.1481357460574278
  0.8604414970588032  0.5524417560856860  0.1510852640123293
  0.8617798184615394  0.4432365857625425  0.8471948120515217
  0.1434428113223308  0.5478398942203512  0.8473984585732123
  0.1557623186363674  0.1403222367987711  0.4522180891525031
  0.1551674452104943  0.8568839247088285  0.5479893715528169
  0.8540510313872195  0.8576165906270867  0.4449004526027517
  0.8513888719744810  0.1402842215146795  0.5519960078861923
  0.4614159737515782  0.1387715876761913  0.1283550140801669
  0.5581306403737223  0.1614189006822880  0.8433884053353001
  0.4574247222469161  0.8604992398848978  0.8712115406349019
  0.5595449974231432  0.8340127980113002  0.1527723183222238
  0.9481327256722126  0.6355674030959602  0.6463449963224265
  0.0570447273148121  0.3531515940022826  0.6536574598175832
  0.9574427311067626  0.3617787206931866  0.3508965270563146
  0.0576197877581654  0.6456239493421299  0.3434810840322840
  0.6486658819010861  0.6533487154271541  0.9424350497985712
  0.3663183687378404  0.6471110761070169  0.0499825837786342
  0.3557884713265780  0.3405619075901136  0.9453284118601859
  0.6387020738050667  0.3542944081421647  0.0453404213495436
  0.6601596975654473  0.9404214582902041  0.6445838902491448
  0.6496452346021377  0.0467064463456781  0.3641253020941111
  0.3480181680541751  0.9471827229941920  0.3511886151384106
  0.3576055535950249  0.0488429927748263  0.6368588432404830
  0.8107056660057754  0.8054477081391881  0.1940235871777803
  0.8094460038500911  0.1926310089670298  0.8051622756712505
  0.6897907090896070  0.6875780517206900  0.6891534702734810
  0.3164620465957731  0.3137605497588750  0.6853021712195356
  0.3167641026202183  0.6869802163094424  0.3151612879243762
  0.2557254311011074  0.4977596752376350 -0.0035323548774963
  0.7545882487036565  0.5003785169336337 -0.0031665471560600
  0.0050792709011095  0.2482521098318695  0.5005712136631224
  0.0049125166179313  0.7478798724568942  0.4975228906550198
  0.5064093209701734 -0.0069391113371465  0.2478761771470609
  0.5092166542931233  0.0003933880333763  0.7483795160446067
  0.2554454893758754 -0.0024405788999269  0.4972702717150256
  0.7546280765100806 -0.0037568754191013  0.5009725573966899
  0.5049234714580170  0.2481803232891008 -0.0085721586453697
  0.5087861192634304  0.7484954832542278  0.0025433831794338
  0.0053706597154904  0.5023832003706119  0.2481921621515140
  0.0035556039636744  0.4958001101594747  0.7482034251473163
 -0.0761939100343982 -0.0014770148185487 -0.0012946269852946
  0.4700380989684781  0.5351740179976344  0.5355327260440548
  0.1630085080092953  0.1599143192223604  0.1583496829170870
  0.1639856213156648  0.8394761602531855  0.8400050393228919
  0.6585842246148469  0.3424023059192573  0.3414751850149344
 
  0.00000000E+00  0.00000000E+00  0.00000000E+00
  0.00000000E+00  0.00000000E+00  0.00000000E+00
  0.00000000E+00  0.00000000E+00  0.00000000E+00
  0.00000000E+00  0.00000000E+00  0.00000000E+00
  0.00000000E+00  0.00000000E+00  0.00000000E+00
  0.00000000E+00  0.00000000E+00  0.00000000E+00
  0.00000000E+00  0.00000000E+00  0.00000000E+00
  0.00000000E+00  0.00000000E+00  0.00000000E+00
  0.00000000E+00  0.00000000E+00  0.00000000E+00
  0.00000000E+00  0.00000000E+00  0.00000000E+00
  0.00000000E+00  0.00000000E+00  0.00000000E+00
  0.00000000E+00  0.00000000E+00  0.00000000E+00
  0.00000000E+00  0.00000000E+00  0.00000000E+00
  0.00000000E+00  0.00000000E+00  0.00000000E+00
  0.00000000E+00  0.00000000E+00  0.00000000E+00
  0.00000000E+00  0.00000000E+00  0.00000000E+00
  0.00000000E+00  0.00000000E+00  0.00000000E+00
  0.00000000E+00  0.00000000E+00  0.00000000E+00
  0.00000000E+00  0.00000000E+00  0.00000000E+00
  0.00000000E+00  0.00000000E+00  0.00000000E+00
  0.00000000E+00  0.00000000E+00  0.00000000E+00
  0.00000000E+00  0.00000000E+00  0.00000000E+00
  0.00000000E+00  0.00000000E+00  0.00000000E+00
  0.00000000E+00  0.00000000E+00  0.00000000E+00
  0.00000000E+00  0.00000000E+00  0.00000000E+00
  0.00000000E+00  0.00000000E+00  0.00000000E+00
  0.00000000E+00  0.00000000E+00  0.00000000E+00
  0.00000000E+00  0.00000000E+00  0.00000000E+00
  0.00000000E+00  0.00000000E+00  0.00000000E+00
  0.00000000E+00  0.00000000E+00  0.00000000E+00
  0.00000000E+00  0.00000000E+00  0.00000000E+00
  0.00000000E+00  0.00000000E+00  0.00000000E+00
  0.00000000E+00  0.00000000E+00  0.00000000E+00
  0.00000000E+00  0.00000000E+00  0.00000000E+00
  0.00000000E+00  0.00000000E+00  0.00000000E+00
  0.00000000E+00  0.00000000E+00  0.00000000E+00
  0.00000000E+00  0.00000000E+00  0.00000000E+00
  0.00000000E+00  0.00000000E+00  0.00000000E+00
  0.00000000E+00  0.00000000E+00  0.00000000E+00
  0.00000000E+00  0.00000000E+00  0.00000000E+00
  0.00000000E+00  0.00000000E+00  0.00000000E+00
  0.00000000E+00  0.00000000E+00  0.00000000E+00
  0.00000000E+00  0.00000000E+00  0.00000000E+00
  0.00000000E+00  0.00000000E+00  0.00000000E+00
  0.00000000E+00  0.00000000E+00  0.00000000E+00
  0.00000000E+00  0.00000000E+00  0.00000000E+00
