Sodilite                                
   1.00000000000000     
     9.0449721931341180    0.0316428822616100    0.0000000000000000
     0.0316518053833364    9.0476599435743630    0.0000000000000000
     0.0000000000000000    0.0000000000000000    9.0532070684025570
   O    Na   Al   Si   Cl   K 
    24     6     6     6     2     2
Direct
  0.1389871673739441  0.4396303281740948  0.1530625733604149
  0.8610128326260562  0.5603696718259055  0.1530625733604149
  0.8577104756436710  0.4457240715591532  0.8523862459311763
  0.1422895243563290  0.5542759284408465  0.8523862459311763
  0.1516532177921417  0.1408827344592966  0.4438491083412771
  0.1498196238775604  0.8594216253554291  0.5586392083832302
  0.8483467822078586  0.8591172655407031  0.4438491083412771
  0.8501803761224398  0.1405783746445711  0.5586392083832302
  0.4410326374374627  0.1488420749889614  0.1418801041805871
  0.5553004278660270  0.1525648394315951  0.8608818296828260
  0.4446995721339728  0.8474351605684052  0.8608818296828260
  0.5589673625625370  0.8511579250110384  0.1418801041805871
  0.9493757286033926  0.6416549703229208  0.6535763316098177
  0.0506242713966073  0.3583450296770787  0.6535763316098177
  0.9417145515505214  0.3602059044400652  0.3523835574915937
  0.0582854484494788  0.6397940955599345  0.3523835574915937
  0.6281925629078288  0.6382217704490982  0.9553037686072295
  0.3462870528585238  0.6633987804242646  0.0615035925278983
  0.3718074370921711  0.3617782295509019  0.9553037686072295
  0.6537129471414762  0.3366012195757353  0.0615035925278983
  0.6505293098271878  0.9495124429677821  0.6425461674532248
  0.6503777309210304  0.0585314186989749  0.3610175638479461
  0.3496222690789693  0.9414685813010250  0.3610175638479461
  0.3494706901728125  0.0504875570322179  0.6425461674532248
  0.1831040575852961  0.1820709685695259  0.1838031311803933
  0.8168959424147043  0.8179290314304739  0.1838031311803933
  0.8203652822351778  0.1808938669514361  0.8229555819353952
  0.1796347177648214  0.8191061330485638  0.8229555819353952
  0.6942979591364251  0.3059419482483856  0.3100469219486192
  0.3057020408635751  0.6940580517516145  0.3100469219486192
  0.2499467344813716  0.5034936060568717  0.0071532000767143
  0.7500532655186282  0.4965063939431283  0.0071532000767143
 -0.0001473345021471  0.2496596155458761  0.5022126335117736
  0.0001473345021471  0.7503403844541237  0.5022126335117736
  0.5000000000000000 -0.0000000000000000  0.2525977597333444
  0.5000000000000000 -0.0000000000000000  0.7540649266642258
  0.2499210590124165 -0.0013494942215289  0.5018092365046842
  0.7500789409875838  0.0013494942215289  0.5018092365046842
  0.5046075232488550  0.2500018580826573  0.0060532489504257
  0.4953924767511450  0.7499981419173424  0.0060532489504257
  0.0000000000000000  0.5000000000000000  0.2530701856715249
  0.0000000000000000  0.5000000000000000  0.7540254709095798
  0.0000000000000000 -0.0000000000000000  0.0052254871154420
  0.5000000000000000  0.5000000000000000  0.4177040869151586
  0.6563013585219726  0.6567843604715938  0.6605920359701346
  0.3436986414780269  0.3432156395284064  0.6605920359701346
 
  0.00000000E+00  0.00000000E+00  0.00000000E+00
  0.00000000E+00  0.00000000E+00  0.00000000E+00
  0.00000000E+00  0.00000000E+00  0.00000000E+00
  0.00000000E+00  0.00000000E+00  0.00000000E+00
  0.00000000E+00  0.00000000E+00  0.00000000E+00
  0.00000000E+00  0.00000000E+00  0.00000000E+00
  0.00000000E+00  0.00000000E+00  0.00000000E+00
  0.00000000E+00  0.00000000E+00  0.00000000E+00
  0.00000000E+00  0.00000000E+00  0.00000000E+00
  0.00000000E+00  0.00000000E+00  0.00000000E+00
  0.00000000E+00  0.00000000E+00  0.00000000E+00
  0.00000000E+00  0.00000000E+00  0.00000000E+00
  0.00000000E+00  0.00000000E+00  0.00000000E+00
  0.00000000E+00  0.00000000E+00  0.00000000E+00
  0.00000000E+00  0.00000000E+00  0.00000000E+00
  0.00000000E+00  0.00000000E+00  0.00000000E+00
  0.00000000E+00  0.00000000E+00  0.00000000E+00
  0.00000000E+00  0.00000000E+00  0.00000000E+00
  0.00000000E+00  0.00000000E+00  0.00000000E+00
  0.00000000E+00  0.00000000E+00  0.00000000E+00
  0.00000000E+00  0.00000000E+00  0.00000000E+00
  0.00000000E+00  0.00000000E+00  0.00000000E+00
  0.00000000E+00  0.00000000E+00  0.00000000E+00
  0.00000000E+00  0.00000000E+00  0.00000000E+00
  0.00000000E+00  0.00000000E+00  0.00000000E+00
  0.00000000E+00  0.00000000E+00  0.00000000E+00
  0.00000000E+00  0.00000000E+00  0.00000000E+00
  0.00000000E+00  0.00000000E+00  0.00000000E+00
  0.00000000E+00  0.00000000E+00  0.00000000E+00
  0.00000000E+00  0.00000000E+00  0.00000000E+00
  0.00000000E+00  0.00000000E+00  0.00000000E+00
  0.00000000E+00  0.00000000E+00  0.00000000E+00
  0.00000000E+00  0.00000000E+00  0.00000000E+00
  0.00000000E+00  0.00000000E+00  0.00000000E+00
  0.00000000E+00  0.00000000E+00  0.00000000E+00
  0.00000000E+00  0.00000000E+00  0.00000000E+00
  0.00000000E+00  0.00000000E+00  0.00000000E+00
  0.00000000E+00  0.00000000E+00  0.00000000E+00
  0.00000000E+00  0.00000000E+00  0.00000000E+00
  0.00000000E+00  0.00000000E+00  0.00000000E+00
  0.00000000E+00  0.00000000E+00  0.00000000E+00
  0.00000000E+00  0.00000000E+00  0.00000000E+00
  0.00000000E+00  0.00000000E+00  0.00000000E+00
  0.00000000E+00  0.00000000E+00  0.00000000E+00
  0.00000000E+00  0.00000000E+00  0.00000000E+00
  0.00000000E+00  0.00000000E+00  0.00000000E+00
