Sodilite                                
   1.00000000000000     
     9.0943177378337978    0.0137656925882743    0.0145227251372960
     0.0137728567436176    9.0955370134167186   -0.0158482453455039
     0.0145176507233008   -0.0158449050562987    9.1087110900755732
   O    Na   Al   Si   Cl   K 
    24     5     6     6     2     3
Direct
  0.1338226471065284  0.4442028986199933  0.1476074657329666
  0.8548058571950249  0.5585840626582729  0.1574219867434246
  0.8607002614495866  0.4595941751367889  0.8553588322924013
  0.1474366548725748  0.5529433505037016  0.8459031116620420
  0.1572504920916871  0.1479908280181064  0.4456652965865238
  0.1435797859700737  0.8656458525242803  0.5532282123778777
  0.8407691982323914  0.8526821967378044  0.4449819132814077
  0.8546139846073275  0.1363653699083645  0.5440213077865886
  0.4422074350803535  0.1554291834472048  0.1476873700887563
  0.5415929009692191  0.1496259683266247  0.8643718406056450
  0.4466071604423131  0.8432605603226486  0.8549736320536810
  0.5544336412313448  0.8562458388657986  0.1365464590143939
  0.9539666782359847  0.6442775165728417  0.6516376043682326
  0.0437182424208936  0.3583800403383428  0.6537215096930885
  0.9439248879758457  0.3607126940485303  0.3497707954343375
  0.0561307987274862  0.6405847891919486  0.3505023020343712
  0.6277679106825403  0.6406773670669289  0.9574560341922381
  0.3458483040866271  0.6644899655996088  0.0587262283892523
  0.3690144041821886  0.3630611446083932  0.9589883988609788
  0.6528073155191920  0.3371750379361852  0.0557246043096100
  0.6511276251523660  0.9568067862527996  0.6426609767189579
  0.6489152603457689  0.0548929984861528  0.3582655212003516
  0.3480877177734771  0.9434874006707074  0.3599679755684823
  0.3473869032322359  0.0472007017314443  0.6416832832917766
  0.1888637717006525  0.1887078619409558  0.1900384546953239
  0.8102351050300951  0.8118111196582022  0.1895242087163423
  0.1856128681230413  0.8134689143637815  0.8169056865431685
  0.6922889862644596  0.3066716963337053  0.3082397256635603
  0.3028128971261451  0.6968250163065772  0.3059405323070956
  0.2483205982253162  0.5060939235663688  0.0046739134371613
  0.7481680600047703  0.4995754793560323  0.0074300676666479
  0.0008510558915340  0.2516559656167525  0.4985980806629219
 -0.0020915969427487  0.7517580277343215  0.4987762547969861
  0.4971868750630887  0.0018564065508180  0.2510482986162569
  0.4970596775784663 -0.0005150228079146  0.7522393425166392
  0.2486225685314576  0.0013665536622546  0.4995761041186644
  0.7485690808167133 -0.0000533800386441  0.4977294785079459
  0.5007628420587594  0.2516677108280042  0.0072586918825579
  0.4937829808737264  0.7513565753175199  0.0031794454075656
 -0.0025459129059132  0.5017604523343061  0.2513997193453495
  0.0010588604810657  0.5036821639353125  0.7522414341710459
  0.0333936691908389 -0.0335828880847258  0.0395779272164084
  0.4973463622874968  0.5024460517757445  0.4210303059621524
  0.8433849807638827  0.1576042334861226  0.8432079773596769
  0.6595201792570046  0.6603769876141565  0.6616765677001776
  0.3402800229971162  0.3411494229768753  0.6628351204189683
 
  0.00000000E+00  0.00000000E+00  0.00000000E+00
  0.00000000E+00  0.00000000E+00  0.00000000E+00
  0.00000000E+00  0.00000000E+00  0.00000000E+00
  0.00000000E+00  0.00000000E+00  0.00000000E+00
  0.00000000E+00  0.00000000E+00  0.00000000E+00
  0.00000000E+00  0.00000000E+00  0.00000000E+00
  0.00000000E+00  0.00000000E+00  0.00000000E+00
  0.00000000E+00  0.00000000E+00  0.00000000E+00
  0.00000000E+00  0.00000000E+00  0.00000000E+00
  0.00000000E+00  0.00000000E+00  0.00000000E+00
  0.00000000E+00  0.00000000E+00  0.00000000E+00
  0.00000000E+00  0.00000000E+00  0.00000000E+00
  0.00000000E+00  0.00000000E+00  0.00000000E+00
  0.00000000E+00  0.00000000E+00  0.00000000E+00
  0.00000000E+00  0.00000000E+00  0.00000000E+00
  0.00000000E+00  0.00000000E+00  0.00000000E+00
  0.00000000E+00  0.00000000E+00  0.00000000E+00
  0.00000000E+00  0.00000000E+00  0.00000000E+00
  0.00000000E+00  0.00000000E+00  0.00000000E+00
  0.00000000E+00  0.00000000E+00  0.00000000E+00
  0.00000000E+00  0.00000000E+00  0.00000000E+00
  0.00000000E+00  0.00000000E+00  0.00000000E+00
  0.00000000E+00  0.00000000E+00  0.00000000E+00
  0.00000000E+00  0.00000000E+00  0.00000000E+00
  0.00000000E+00  0.00000000E+00  0.00000000E+00
  0.00000000E+00  0.00000000E+00  0.00000000E+00
  0.00000000E+00  0.00000000E+00  0.00000000E+00
  0.00000000E+00  0.00000000E+00  0.00000000E+00
  0.00000000E+00  0.00000000E+00  0.00000000E+00
  0.00000000E+00  0.00000000E+00  0.00000000E+00
  0.00000000E+00  0.00000000E+00  0.00000000E+00
  0.00000000E+00  0.00000000E+00  0.00000000E+00
  0.00000000E+00  0.00000000E+00  0.00000000E+00
  0.00000000E+00  0.00000000E+00  0.00000000E+00
  0.00000000E+00  0.00000000E+00  0.00000000E+00
  0.00000000E+00  0.00000000E+00  0.00000000E+00
  0.00000000E+00  0.00000000E+00  0.00000000E+00
  0.00000000E+00  0.00000000E+00  0.00000000E+00
  0.00000000E+00  0.00000000E+00  0.00000000E+00
  0.00000000E+00  0.00000000E+00  0.00000000E+00
  0.00000000E+00  0.00000000E+00  0.00000000E+00
  0.00000000E+00  0.00000000E+00  0.00000000E+00
  0.00000000E+00  0.00000000E+00  0.00000000E+00
  0.00000000E+00  0.00000000E+00  0.00000000E+00
  0.00000000E+00  0.00000000E+00  0.00000000E+00
  0.00000000E+00  0.00000000E+00  0.00000000E+00
