Sodilite                                
   1.00000000000000     
     9.2771400807179223    0.0156446462016908    0.0002115692827053
     0.0156446462016908    9.2771400807179223    0.0002115692827053
     0.0002119626461729    0.0002119626461729    9.2660545417059037
   O    Na   Al   Si   Cl   K 
    24     2     6     6     2     6
Direct
  0.1500814273774107  0.4680190600446364  0.1642167876035448
  0.8644057313196829  0.5325303751289399  0.1470217904437004
  0.8478631287425683  0.4596635460687643  0.8422215130615671
  0.1364742746353078  0.5260957232935941  0.8568156082654109
  0.1481125581968991  0.1402566418550663  0.4719101057489149
  0.1571522232366570  0.8515790314296591  0.5300387022175496
  0.8500474628935122  0.8621308548906175  0.4715384658158473
  0.8426816232375985  0.1483016373017985  0.5451333768564909
  0.4679847776919085  0.1436552424087236  0.1366329040933068
  0.5415768933523717  0.1624293377382454  0.8511674523164717
  0.4732046199572653  0.8537450634311960  0.8650790032200724
  0.5308624298242218  0.8406348367197110  0.1540681964899878
  0.9680190600446362  0.6500814273774110  0.6642167876035451
  0.0325303751289396  0.3644057313196828  0.6470217904437005
  0.9596635460687646  0.3478631287425684  0.3422215130615672
  0.0260957232935945  0.6364742746353079  0.3568156082654106
  0.6402566418550660  0.6481125581968995  0.9719101057489150
  0.3515790314296599  0.6571522232366565  0.0300387022175495
  0.3621308548906174  0.3500474628935115  0.9715384658158477
  0.6483016373017984  0.3426816232375985  0.0451333768564908
  0.6436552424087236  0.9679847776919088  0.6366329040933077
  0.6624293377382454  0.0415768933523716  0.3511674523164717
  0.3537450634311953  0.9732046199572659  0.3650790032200716
  0.3406348367197103  0.0308624298242222  0.6540681964899877
  0.7938895188201417  0.2072143795086804  0.7940352134586863
  0.7072143795086803  0.2938895188201412  0.2940352134586860
  0.2500845700856362  0.4991850839115280  0.0058923315310397
  0.7499800775380934  0.4961809340258522  0.0020249769571987
 -0.0038190659741480  0.2499800775380927  0.5020249769571985
 -0.0008149160884723  0.7500845700856360  0.5058923315310396
  0.5040897429507760  0.0003634536062164  0.2536422350011717
  0.5003634536062164  0.0040897429507760  0.7536422350011709
  0.2499412966281598 -0.0002982618209761  0.5054981884456894
  0.7498519287438811  0.0047668780881977  0.5017100141914295
  0.5047668780881973  0.2498519287438805  0.0017100141914296
  0.4997017381790239  0.7499412966281600  0.0054981884456895
 -0.0003534531775259  0.4961546098647411  0.2533651249157632
 -0.0038453901352588  0.4996465468224741  0.7533651249157629
 -0.0387419569659331  0.0388455657296149 -0.0327781992403701
  0.5388455657296150  0.4612580430340669  0.4672218007596300
  0.1761655288674289  0.1738340977906315  0.1758326021866929
  0.8255271101492855  0.8242169199387485  0.1756442164273813
  0.1723065698388729  0.8273069051015945  0.8292893899924538
  0.6738340977906314  0.6761655288674291  0.6758326021866929
  0.3242169199387489  0.3255271101492854  0.6756442164273808
  0.3273069051015948  0.6723065698388729  0.3292893899924542
 
  0.00000000E+00  0.00000000E+00  0.00000000E+00
  0.00000000E+00  0.00000000E+00  0.00000000E+00
  0.00000000E+00  0.00000000E+00  0.00000000E+00
  0.00000000E+00  0.00000000E+00  0.00000000E+00
  0.00000000E+00  0.00000000E+00  0.00000000E+00
  0.00000000E+00  0.00000000E+00  0.00000000E+00
  0.00000000E+00  0.00000000E+00  0.00000000E+00
  0.00000000E+00  0.00000000E+00  0.00000000E+00
  0.00000000E+00  0.00000000E+00  0.00000000E+00
  0.00000000E+00  0.00000000E+00  0.00000000E+00
  0.00000000E+00  0.00000000E+00  0.00000000E+00
  0.00000000E+00  0.00000000E+00  0.00000000E+00
  0.00000000E+00  0.00000000E+00  0.00000000E+00
  0.00000000E+00  0.00000000E+00  0.00000000E+00
  0.00000000E+00  0.00000000E+00  0.00000000E+00
  0.00000000E+00  0.00000000E+00  0.00000000E+00
  0.00000000E+00  0.00000000E+00  0.00000000E+00
  0.00000000E+00  0.00000000E+00  0.00000000E+00
  0.00000000E+00  0.00000000E+00  0.00000000E+00
  0.00000000E+00  0.00000000E+00  0.00000000E+00
  0.00000000E+00  0.00000000E+00  0.00000000E+00
  0.00000000E+00  0.00000000E+00  0.00000000E+00
  0.00000000E+00  0.00000000E+00  0.00000000E+00
  0.00000000E+00  0.00000000E+00  0.00000000E+00
  0.00000000E+00  0.00000000E+00  0.00000000E+00
  0.00000000E+00  0.00000000E+00  0.00000000E+00
  0.00000000E+00  0.00000000E+00  0.00000000E+00
  0.00000000E+00  0.00000000E+00  0.00000000E+00
  0.00000000E+00  0.00000000E+00  0.00000000E+00
  0.00000000E+00  0.00000000E+00  0.00000000E+00
  0.00000000E+00  0.00000000E+00  0.00000000E+00
  0.00000000E+00  0.00000000E+00  0.00000000E+00
  0.00000000E+00  0.00000000E+00  0.00000000E+00
  0.00000000E+00  0.00000000E+00  0.00000000E+00
  0.00000000E+00  0.00000000E+00  0.00000000E+00
  0.00000000E+00  0.00000000E+00  0.00000000E+00
  0.00000000E+00  0.00000000E+00  0.00000000E+00
  0.00000000E+00  0.00000000E+00  0.00000000E+00
  0.00000000E+00  0.00000000E+00  0.00000000E+00
  0.00000000E+00  0.00000000E+00  0.00000000E+00
  0.00000000E+00  0.00000000E+00  0.00000000E+00
  0.00000000E+00  0.00000000E+00  0.00000000E+00
  0.00000000E+00  0.00000000E+00  0.00000000E+00
  0.00000000E+00  0.00000000E+00  0.00000000E+00
  0.00000000E+00  0.00000000E+00  0.00000000E+00
  0.00000000E+00  0.00000000E+00  0.00000000E+00
