Sodilite                                
   1.00000000000000     
     9.2771455985756148   -0.0002089076892753    0.0156434974793727
    -0.0002093248205162    9.2660590237526570   -0.0002093248205162
     0.0156434974793727   -0.0002089076892753    9.2771455985756148
   O    Na   Al   Si   Cl   K 
    24     2     6     6     2     6
Direct
  0.1378690222162756  0.4715389568428993  0.1499524129399986
  0.8516981872563940  0.5451331317591882  0.1573183374827956
  0.8597435770551283  0.4719097970621547  0.8518874385161401
  0.1484208921592480  0.5300385805349669  0.8428476725826939
  0.1593650310222389  0.1540678746120122  0.4691376376784320
  0.1462550794612179  0.8650788460129136  0.5267955420840595
  0.8375706661980141  0.8511677245618381  0.4584234932211216
  0.8563444276734892  0.1366331842822589  0.5320148394448252
  0.4674692229161911  0.1470216417135886  0.1355940053373984
  0.5319806478176591  0.1642172180521159  0.8499185799458848
  0.4739047813292192  0.8568162551738493  0.8635261608688776
  0.5403363509118407  0.8422213222645402  0.1521369303508441
  0.9691376376784325  0.6540678746120120  0.6593650310222384
  0.0267955420840592  0.3650788460129136  0.6462550794612179
  0.9584234932211210  0.3511677245618380  0.3375706661980145
  0.0320148394448249  0.6366331842822592  0.3563444276734888
  0.6355940053373984  0.6470216417135889  0.9674692229161920
  0.3499185799458848  0.6642172180521161  0.0319806478176591
  0.3635261608688770  0.3568162551738491  0.9739047813292190
  0.6521369303508440  0.3422213222645403  0.0403363509118412
  0.6499524129399992  0.9715389568428993  0.6378690222162755
  0.6573183374827957  0.0451331317591881  0.3516981872563940
  0.3518874385161406  0.9719097970621544  0.3597435770551282
  0.3428476725826941  0.0300385805349669  0.6484208921592479
  0.7927862987006441  0.7940352987381315  0.2061104178309102
  0.7061104178309108  0.2940352987381315  0.2927862987006442
  0.2499155134874807  0.5058926989163173  0.0008150159717960
  0.7500198390953572  0.5020247503133519  0.0038188715533384
 -0.0003633614043173  0.2536422186840352  0.4959101893500119
 -0.0040898106499882  0.7536422186840348  0.4996366385956826
  0.5038188715533380  0.0020247503133522  0.2500198390953572
  0.5008150159717961  0.0058926989163169  0.7499155134874809
  0.2500587283673787  0.0054979223717520  0.5002982398970470
  0.7501479691119909  0.0017101291155089  0.4952330825010040
  0.5038454355173341  0.2533651752198635  0.0003535715376750
  0.5003535715376748  0.7533651752198635  0.0038454355173342
 -0.0047669174989961  0.5017101291155086  0.2501479691119911
  0.0002982398970474  0.5054979223717511  0.7500587283673791
 -0.0388450409134700 -0.0327786286417364  0.0387415957153152
  0.5387415957153155  0.4672213713582637  0.4611549590865298
  0.1757830869813885  0.1756444892665551  0.1744729035013262
  0.8261657435970826  0.1758324984097425  0.8238341498684698
  0.1726938179306725  0.8292889147341523  0.8276929953315754
  0.6744729035013266  0.6756444892665551  0.6757830869813891
  0.3276929953315754  0.3292889147341522  0.6726938179306727
  0.3238341498684703  0.6758324984097425  0.3261657435970825
 
  0.00000000E+00  0.00000000E+00  0.00000000E+00
  0.00000000E+00  0.00000000E+00  0.00000000E+00
  0.00000000E+00  0.00000000E+00  0.00000000E+00
  0.00000000E+00  0.00000000E+00  0.00000000E+00
  0.00000000E+00  0.00000000E+00  0.00000000E+00
  0.00000000E+00  0.00000000E+00  0.00000000E+00
  0.00000000E+00  0.00000000E+00  0.00000000E+00
  0.00000000E+00  0.00000000E+00  0.00000000E+00
  0.00000000E+00  0.00000000E+00  0.00000000E+00
  0.00000000E+00  0.00000000E+00  0.00000000E+00
  0.00000000E+00  0.00000000E+00  0.00000000E+00
  0.00000000E+00  0.00000000E+00  0.00000000E+00
  0.00000000E+00  0.00000000E+00  0.00000000E+00
  0.00000000E+00  0.00000000E+00  0.00000000E+00
  0.00000000E+00  0.00000000E+00  0.00000000E+00
  0.00000000E+00  0.00000000E+00  0.00000000E+00
  0.00000000E+00  0.00000000E+00  0.00000000E+00
  0.00000000E+00  0.00000000E+00  0.00000000E+00
  0.00000000E+00  0.00000000E+00  0.00000000E+00
  0.00000000E+00  0.00000000E+00  0.00000000E+00
  0.00000000E+00  0.00000000E+00  0.00000000E+00
  0.00000000E+00  0.00000000E+00  0.00000000E+00
  0.00000000E+00  0.00000000E+00  0.00000000E+00
  0.00000000E+00  0.00000000E+00  0.00000000E+00
  0.00000000E+00  0.00000000E+00  0.00000000E+00
  0.00000000E+00  0.00000000E+00  0.00000000E+00
  0.00000000E+00  0.00000000E+00  0.00000000E+00
  0.00000000E+00  0.00000000E+00  0.00000000E+00
  0.00000000E+00  0.00000000E+00  0.00000000E+00
  0.00000000E+00  0.00000000E+00  0.00000000E+00
  0.00000000E+00  0.00000000E+00  0.00000000E+00
  0.00000000E+00  0.00000000E+00  0.00000000E+00
  0.00000000E+00  0.00000000E+00  0.00000000E+00
  0.00000000E+00  0.00000000E+00  0.00000000E+00
  0.00000000E+00  0.00000000E+00  0.00000000E+00
  0.00000000E+00  0.00000000E+00  0.00000000E+00
  0.00000000E+00  0.00000000E+00  0.00000000E+00
  0.00000000E+00  0.00000000E+00  0.00000000E+00
  0.00000000E+00  0.00000000E+00  0.00000000E+00
  0.00000000E+00  0.00000000E+00  0.00000000E+00
  0.00000000E+00  0.00000000E+00  0.00000000E+00
  0.00000000E+00  0.00000000E+00  0.00000000E+00
  0.00000000E+00  0.00000000E+00  0.00000000E+00
  0.00000000E+00  0.00000000E+00  0.00000000E+00
  0.00000000E+00  0.00000000E+00  0.00000000E+00
  0.00000000E+00  0.00000000E+00  0.00000000E+00
