Sodilite                                
   1.00000000000000     
     9.1744830004120601   -0.0032233786725103    0.0244389620703934
    -0.0032205473318569    9.1734359435488226    0.0258909493263698
     0.0244388006444716    0.0258941721195881    9.1822867846998939
   O    Na   Al   Si   Cl   K 
    24     4     6     6     2     4
Direct
  0.1419989901417046  0.4639224175763029  0.1480565058748001
  0.8547872436134586  0.5466007178656384  0.1559244631362063
  0.8632205065706973  0.4537351554648580  0.8493866624889769
  0.1463868782964327  0.5526269818336733  0.8459498548906099
  0.1463465493466759  0.1364362977329624  0.4597777589795305
  0.1625235654367471  0.8529469349672180  0.5497309957094286
  0.8553470317059699  0.8645364792072654  0.4584818236974485
  0.8446162252753538  0.1515041133605535  0.5478423647383933
  0.4629185533707711  0.1529282602802765  0.1387337342014919
  0.5534146858241444  0.1567516982757815  0.8549438936318142
  0.4547472814543920  0.8538568434672210  0.8604802126242550
  0.5456516848699542  0.8466137582178944  0.1468714516401072
  0.9613546255124497  0.6356268091358166  0.6442466183123157
  0.0523311832880993  0.3522850374233720  0.6603025898825002
  0.9652542683050404  0.3660493779831218  0.3539998577438375
  0.0417582480119079  0.6537590743244638  0.3416054243558874
  0.6532965329388345  0.6634512227029382  0.9572033347808069
  0.3682093168402052  0.6466708881683851  0.0387990224756131
  0.3510589547206558  0.3411994303987322  0.9515313814870093
  0.6363567870382870  0.3605120667112979  0.0374108052829684
  0.6470172996450249  0.9615211441731946  0.6354448161448406
  0.6627362191032786  0.0430710760181743  0.3504703919782182
  0.3567061562040937  0.9655372194990878  0.3651244570164670
  0.3437986058741480  0.0508097820870886  0.6513542408498511
  0.8127558466507303  0.8128962728067062  0.1821105337061606
  0.8089757838326526  0.1904477649552718  0.8062287506017572
  0.1916776666997023  0.8086550001408703  0.8077422191314100
  0.2965096347574885  0.2953921934188815  0.7051917396608008
  0.2531581249793648  0.5013180269333157 -0.0038883662780609
  0.7539156215303208  0.5060390760139624 -0.0015661548834967
  0.0029167504352480  0.2531838537958261  0.5043655818198828
  0.0057997768436325  0.7537147567696547  0.5000541026052774
  0.5059519439001164  0.0033615294325049  0.2500065431338011
  0.5013754699722882  0.0055929984240172  0.7507799242723807
  0.2530124736189212  0.0022303497914122  0.5058225835255283
  0.7533542489704114  0.0055311870474168  0.4989003862624043
  0.5014048913884332  0.2532702467404828 -0.0043409763176194
  0.5055640908979362  0.7534782109950393 -0.0000546836582543
  0.0019891929497435  0.5071220717225486  0.2497595507491703
  0.0060339255304409  0.4997356378670389  0.7501568232689459
 -0.0281983964881868 -0.0285201457370783 -0.0354277870192155
  0.4625964005185045  0.4624131798727833  0.5410680545482399
  0.1621777796013356  0.1628913505806463  0.1628283707730753
  0.6729454269891176  0.6726639947116461  0.6682326136540133
  0.6711473161526917  0.3340909299692849  0.3285804442354833
  0.3330986368807797  0.6715387268724503  0.3297770842849380
 
  0.00000000E+00  0.00000000E+00  0.00000000E+00
  0.00000000E+00  0.00000000E+00  0.00000000E+00
  0.00000000E+00  0.00000000E+00  0.00000000E+00
  0.00000000E+00  0.00000000E+00  0.00000000E+00
  0.00000000E+00  0.00000000E+00  0.00000000E+00
  0.00000000E+00  0.00000000E+00  0.00000000E+00
  0.00000000E+00  0.00000000E+00  0.00000000E+00
  0.00000000E+00  0.00000000E+00  0.00000000E+00
  0.00000000E+00  0.00000000E+00  0.00000000E+00
  0.00000000E+00  0.00000000E+00  0.00000000E+00
  0.00000000E+00  0.00000000E+00  0.00000000E+00
  0.00000000E+00  0.00000000E+00  0.00000000E+00
  0.00000000E+00  0.00000000E+00  0.00000000E+00
  0.00000000E+00  0.00000000E+00  0.00000000E+00
  0.00000000E+00  0.00000000E+00  0.00000000E+00
  0.00000000E+00  0.00000000E+00  0.00000000E+00
  0.00000000E+00  0.00000000E+00  0.00000000E+00
  0.00000000E+00  0.00000000E+00  0.00000000E+00
  0.00000000E+00  0.00000000E+00  0.00000000E+00
  0.00000000E+00  0.00000000E+00  0.00000000E+00
  0.00000000E+00  0.00000000E+00  0.00000000E+00
  0.00000000E+00  0.00000000E+00  0.00000000E+00
  0.00000000E+00  0.00000000E+00  0.00000000E+00
  0.00000000E+00  0.00000000E+00  0.00000000E+00
  0.00000000E+00  0.00000000E+00  0.00000000E+00
  0.00000000E+00  0.00000000E+00  0.00000000E+00
  0.00000000E+00  0.00000000E+00  0.00000000E+00
  0.00000000E+00  0.00000000E+00  0.00000000E+00
  0.00000000E+00  0.00000000E+00  0.00000000E+00
  0.00000000E+00  0.00000000E+00  0.00000000E+00
  0.00000000E+00  0.00000000E+00  0.00000000E+00
  0.00000000E+00  0.00000000E+00  0.00000000E+00
  0.00000000E+00  0.00000000E+00  0.00000000E+00
  0.00000000E+00  0.00000000E+00  0.00000000E+00
  0.00000000E+00  0.00000000E+00  0.00000000E+00
  0.00000000E+00  0.00000000E+00  0.00000000E+00
  0.00000000E+00  0.00000000E+00  0.00000000E+00
  0.00000000E+00  0.00000000E+00  0.00000000E+00
  0.00000000E+00  0.00000000E+00  0.00000000E+00
  0.00000000E+00  0.00000000E+00  0.00000000E+00
  0.00000000E+00  0.00000000E+00  0.00000000E+00
  0.00000000E+00  0.00000000E+00  0.00000000E+00
  0.00000000E+00  0.00000000E+00  0.00000000E+00
  0.00000000E+00  0.00000000E+00  0.00000000E+00
  0.00000000E+00  0.00000000E+00  0.00000000E+00
  0.00000000E+00  0.00000000E+00  0.00000000E+00
