Sodilite                                
   1.00000000000000     
     9.2270127364957890   -0.0149445193494156    0.0363894110808881
    -0.0149375968390565    9.2263196867911006    0.0134390773122844
     0.0363739199167461    0.0134451040805410    9.2275426732277648
   O    Na   Al   Si   Cl   K 
    24     3     6     6     2     5
Direct
  0.1377416033514350  0.4681256638735171  0.1470611869680958
  0.8513638231389655  0.5481148969606233  0.1569323728318232
  0.8628051908676908  0.4677033641081503  0.8507864690603467
  0.1504544449401007  0.5375423412955668  0.8413131429906829
  0.1598631145491185  0.1545980423678648  0.4616703214804058
  0.1484460478348905  0.8673205501923446  0.5317432635305015
  0.8396194937524095  0.8528659767805218  0.4547521973309495
  0.8576634991300919  0.1378843329059535  0.5352468986245998
  0.4634257886375597  0.1489271076504739  0.1341241639539386
  0.5395151918724077  0.1641509395195541  0.8493675587773767
  0.4700188561434204  0.8587809795437014  0.8621389315998547
  0.5438673936235239  0.8442601005320191  0.1507021920741147
  0.9664762348316092  0.6486932417078594  0.6525392662492494
  0.0406517435297566  0.3602828513899679  0.6504483909090273
  0.9549084630431743  0.3578789420489220  0.3425950988246685
  0.0377455774524583  0.6427850796949456  0.3501717142493620
  0.6416427620447034  0.6531181713070551  0.9616218431317060
  0.3562677526376837  0.6597485514339561  0.0353978699588209
  0.3587635749209192  0.3519770640180692  0.9602066471156210
  0.6462582452067925  0.3493058876316744  0.0431658497658456
  0.6463590145645177  0.9681316235543754  0.6321740578875610
  0.6619489659813244  0.0503714164722271  0.3471961487952155
  0.3580523479476748  0.9692549858855217  0.3645554785713516
  0.3395456656629772  0.0443556960366722  0.6519941847053876
  0.7963147295731620  0.7979804400838471  0.2024654476716843
  0.3088473573085970  0.3067342742950930  0.6909327780470271
  0.6973850531124269  0.3028016552306034  0.3011158370481885
  0.2517295800829382  0.5052116752105026 -0.0023013319071680
  0.7513590311059348  0.5046098396528852  0.0014596848244238
  0.0024655595854737  0.2550723057285398  0.4964759045212931
 -0.0014857429203317  0.7555553260652017  0.4971434725363625
  0.5060556853422158  0.0044579023290754  0.2488601679613052
  0.5005741502003366  0.0088271711558532  0.7478341046567539
  0.2519328452093036  0.0090839920107659  0.5012834974053960
  0.7513964492116167  0.0034532179129072  0.4926849205399520
  0.5025974046303794  0.2546040994732187 -0.0029337845042831
  0.5031665641203554  0.7551091292884256  0.0019993342976071
 -0.0035592995177828  0.5046851531380075  0.2488378866178731
  0.0042363372862108  0.5043201055220377  0.7483221105722236
 -0.0368620080762189 -0.0330091764491205  0.0367805156224735
  0.5037636133024227  0.4358991622439486  0.4960605613589080
  0.1738423647483815  0.1749987929910679  0.1714091932970902
  0.8293868629142708  0.1744626979774590  0.8250351521205268
  0.1731612417932923  0.8308032038081445  0.8280721549900414
  0.6688947488780854  0.6686772532633245  0.6680639330713581
  0.3313926764437252  0.6694839721566778  0.3324932098644542
 
  0.00000000E+00  0.00000000E+00  0.00000000E+00
  0.00000000E+00  0.00000000E+00  0.00000000E+00
  0.00000000E+00  0.00000000E+00  0.00000000E+00
  0.00000000E+00  0.00000000E+00  0.00000000E+00
  0.00000000E+00  0.00000000E+00  0.00000000E+00
  0.00000000E+00  0.00000000E+00  0.00000000E+00
  0.00000000E+00  0.00000000E+00  0.00000000E+00
  0.00000000E+00  0.00000000E+00  0.00000000E+00
  0.00000000E+00  0.00000000E+00  0.00000000E+00
  0.00000000E+00  0.00000000E+00  0.00000000E+00
  0.00000000E+00  0.00000000E+00  0.00000000E+00
  0.00000000E+00  0.00000000E+00  0.00000000E+00
  0.00000000E+00  0.00000000E+00  0.00000000E+00
  0.00000000E+00  0.00000000E+00  0.00000000E+00
  0.00000000E+00  0.00000000E+00  0.00000000E+00
  0.00000000E+00  0.00000000E+00  0.00000000E+00
  0.00000000E+00  0.00000000E+00  0.00000000E+00
  0.00000000E+00  0.00000000E+00  0.00000000E+00
  0.00000000E+00  0.00000000E+00  0.00000000E+00
  0.00000000E+00  0.00000000E+00  0.00000000E+00
  0.00000000E+00  0.00000000E+00  0.00000000E+00
  0.00000000E+00  0.00000000E+00  0.00000000E+00
  0.00000000E+00  0.00000000E+00  0.00000000E+00
  0.00000000E+00  0.00000000E+00  0.00000000E+00
  0.00000000E+00  0.00000000E+00  0.00000000E+00
  0.00000000E+00  0.00000000E+00  0.00000000E+00
  0.00000000E+00  0.00000000E+00  0.00000000E+00
  0.00000000E+00  0.00000000E+00  0.00000000E+00
  0.00000000E+00  0.00000000E+00  0.00000000E+00
  0.00000000E+00  0.00000000E+00  0.00000000E+00
  0.00000000E+00  0.00000000E+00  0.00000000E+00
  0.00000000E+00  0.00000000E+00  0.00000000E+00
  0.00000000E+00  0.00000000E+00  0.00000000E+00
  0.00000000E+00  0.00000000E+00  0.00000000E+00
  0.00000000E+00  0.00000000E+00  0.00000000E+00
  0.00000000E+00  0.00000000E+00  0.00000000E+00
  0.00000000E+00  0.00000000E+00  0.00000000E+00
  0.00000000E+00  0.00000000E+00  0.00000000E+00
  0.00000000E+00  0.00000000E+00  0.00000000E+00
  0.00000000E+00  0.00000000E+00  0.00000000E+00
  0.00000000E+00  0.00000000E+00  0.00000000E+00
  0.00000000E+00  0.00000000E+00  0.00000000E+00
  0.00000000E+00  0.00000000E+00  0.00000000E+00
  0.00000000E+00  0.00000000E+00  0.00000000E+00
  0.00000000E+00  0.00000000E+00  0.00000000E+00
  0.00000000E+00  0.00000000E+00  0.00000000E+00
