Sodilite                                
   1.00000000000000     
     9.2275174884121896    0.0144217401058247   -0.0129320207262091
     0.0144304055181669    9.2274269590677953    0.0353237767878819
    -0.0129395952309653    0.0353085976708918    9.2278483462627960
   O    Na   Al   Si   Cl   K 
    24     3     6     6     2     5
Direct
  0.1428306385930349  0.4623264027097816  0.1498525528137712
  0.8578934802608414  0.5451032567503110  0.1574346542391507
  0.8602742984140689  0.4592985863217395  0.8495430235551259
  0.1487063752237286  0.5334918714830732  0.8474647547497375
  0.1597634592742960  0.1437307887396077  0.4646238865171349
  0.1531258535037876  0.8583312926101305  0.5383117147710503
  0.8493050249733922  0.8537221309372300  0.4568030302233010
  0.8519570842916662  0.1412515490536379  0.5398512753270003
  0.4692760620072102  0.1419623714367579  0.1354841797600876
  0.5444099459849943  0.1604546088158148  0.8479890627579422
  0.4681542837156578  0.8535916047058764  0.8677956622102928
  0.5503590465349640  0.8380592758787685  0.1528149413539862
  0.9676887773627940  0.6372711327737217  0.6493082588446488
  0.0375351918280467  0.3495701392257162  0.6586362220325381
  0.9681301543358356  0.3621759108744033  0.3528384917493043
  0.0481354297575153  0.6486223968394991  0.3430876429944693
  0.6379386939082056  0.6423793596736783  0.9648022312474557
  0.3528784398914853  0.6604135921344726  0.0452874766115693
  0.3672994825939642  0.3514955372967359  0.9682567888162343
  0.6545891415822680  0.3401706986742900  0.0383246429913660
  0.6641496169047165  0.9604852112484322  0.6506258100221395
  0.6489914909360658  0.0365518678632439  0.3658374075886781
  0.3442604326338235  0.9560951100060778  0.3492894810563507
  0.3587496444806431  0.0299708034037232  0.6379106632387578
  0.8028343699644668  0.8026714839817024  0.1988253032468656
  0.8067250235059830  0.1911937376687640  0.8090236987195110
  0.2979869828461496  0.7036525255274297  0.2975694810068016
  0.2555255191955451  0.5014757369051013  0.0028456428433046
  0.7550573660120866  0.4975517082179230  0.0035287677508424
  0.0052026579964979  0.2482461591299594  0.5022690459827891
  0.0045810544132871  0.7486540126108795  0.4985578571762740
  0.5044648337324927 -0.0060225542515696  0.2511428196177043
  0.5088108752388445 -0.0005929731516483  0.7521580572634424
  0.2550946736757879 -0.0031890042482384  0.4979931898143084
  0.7545999432197054 -0.0026007878594832  0.5028990631428271
  0.5090747039315201  0.2480773347107441 -0.0012630298792852
  0.5034731007307376  0.7486135754295723  0.0073166903610694
  0.0046778098393606  0.5035598964690596  0.2511618827242886
  0.0042980085758278  0.4957965990114721  0.7516801403515097
 -0.0640939583400413 -0.0037401568193167  0.0039114153177662
  0.4669562719748554  0.5368442628237131  0.4632390032944304
  0.1694786626186836  0.1686151181232209  0.1675291035184588
  0.1686808009653382  0.8310971085916933  0.8319174547352485
  0.6744406001276864  0.6706509406971067  0.6749685110318389
  0.3307573403556751  0.3267891019715127  0.6719858002618220
  0.6749713104265025  0.3261306750036798  0.3285662462460897
 
  0.00000000E+00  0.00000000E+00  0.00000000E+00
  0.00000000E+00  0.00000000E+00  0.00000000E+00
  0.00000000E+00  0.00000000E+00  0.00000000E+00
  0.00000000E+00  0.00000000E+00  0.00000000E+00
  0.00000000E+00  0.00000000E+00  0.00000000E+00
  0.00000000E+00  0.00000000E+00  0.00000000E+00
  0.00000000E+00  0.00000000E+00  0.00000000E+00
  0.00000000E+00  0.00000000E+00  0.00000000E+00
  0.00000000E+00  0.00000000E+00  0.00000000E+00
  0.00000000E+00  0.00000000E+00  0.00000000E+00
  0.00000000E+00  0.00000000E+00  0.00000000E+00
  0.00000000E+00  0.00000000E+00  0.00000000E+00
  0.00000000E+00  0.00000000E+00  0.00000000E+00
  0.00000000E+00  0.00000000E+00  0.00000000E+00
  0.00000000E+00  0.00000000E+00  0.00000000E+00
  0.00000000E+00  0.00000000E+00  0.00000000E+00
  0.00000000E+00  0.00000000E+00  0.00000000E+00
  0.00000000E+00  0.00000000E+00  0.00000000E+00
  0.00000000E+00  0.00000000E+00  0.00000000E+00
  0.00000000E+00  0.00000000E+00  0.00000000E+00
  0.00000000E+00  0.00000000E+00  0.00000000E+00
  0.00000000E+00  0.00000000E+00  0.00000000E+00
  0.00000000E+00  0.00000000E+00  0.00000000E+00
  0.00000000E+00  0.00000000E+00  0.00000000E+00
  0.00000000E+00  0.00000000E+00  0.00000000E+00
  0.00000000E+00  0.00000000E+00  0.00000000E+00
  0.00000000E+00  0.00000000E+00  0.00000000E+00
  0.00000000E+00  0.00000000E+00  0.00000000E+00
  0.00000000E+00  0.00000000E+00  0.00000000E+00
  0.00000000E+00  0.00000000E+00  0.00000000E+00
  0.00000000E+00  0.00000000E+00  0.00000000E+00
  0.00000000E+00  0.00000000E+00  0.00000000E+00
  0.00000000E+00  0.00000000E+00  0.00000000E+00
  0.00000000E+00  0.00000000E+00  0.00000000E+00
  0.00000000E+00  0.00000000E+00  0.00000000E+00
  0.00000000E+00  0.00000000E+00  0.00000000E+00
  0.00000000E+00  0.00000000E+00  0.00000000E+00
  0.00000000E+00  0.00000000E+00  0.00000000E+00
  0.00000000E+00  0.00000000E+00  0.00000000E+00
  0.00000000E+00  0.00000000E+00  0.00000000E+00
  0.00000000E+00  0.00000000E+00  0.00000000E+00
  0.00000000E+00  0.00000000E+00  0.00000000E+00
  0.00000000E+00  0.00000000E+00  0.00000000E+00
  0.00000000E+00  0.00000000E+00  0.00000000E+00
  0.00000000E+00  0.00000000E+00  0.00000000E+00
  0.00000000E+00  0.00000000E+00  0.00000000E+00
