Sodilite                                
   1.00000000000000     
     9.1590076918185943    0.0257582251116232   -0.0042206052737309
     0.0257552487432598    9.1511864499772031    0.0257552487432598
    -0.0042206052737309    0.0257582251116232    9.1590076918185943
   O    Na   Al   Si   Cl   K 
    24     4     6     6     2     4
Direct
  0.1425016610537103  0.4558508065438552  0.1542173696405447
  0.8606538726955578  0.5543499867158448  0.1544580828707865
  0.8577871093261344  0.4530601794818854  0.8509164442740740
  0.1457139700448855  0.5378972578789459  0.8513589567162634
  0.1567992604402077  0.1446854926033505  0.4596794742110215
  0.1525472388127431  0.8584989020095534  0.5419397897689247
  0.8479890706785119  0.8571728225708827  0.4507785537423893
  0.8525749423079558  0.1407026228860129  0.5514866252410954
  0.4611565766234900  0.1390726543912358  0.1319435166341061
  0.5519848028736427  0.1648860442167002  0.8486443038690580
  0.4647802761606090  0.8574131287515101  0.8713578900043628
  0.5546401830454942  0.8383614823351431  0.1562571289182830
  0.9596794742110211  0.6446854926033506  0.6567992604402078
  0.0419397897689243  0.3584989020095533  0.6525472388127427
  0.9507785537423888  0.3571728225708821  0.3479890706785122
  0.0514866252410949  0.6407026228860125  0.3525749423079558
  0.6319435166341065  0.6390726543912360  0.9611565766234901
  0.3486443038690580  0.6648860442166999  0.0519848028736420
  0.3713578900043631  0.3574131287515102  0.9647802761606095
  0.6562571289182830  0.3383614823351434  0.0546401830454941
  0.6542173696405447  0.9558508065438551  0.6425016610537102
  0.6544580828707866  0.0543499867158446  0.3606538726955578
  0.3509164442740739  0.9530601794818850  0.3577871093261347
  0.3513589567162640  0.0378972578789461  0.6457139700448857
  0.8042605113224203  0.8036863648740485  0.1977251488500522
  0.8082997319954577  0.1936833278731288  0.8083622169712036
  0.6977251488500520  0.3036863648740485  0.3042605113224208
  0.3083622169712040  0.6936833278731294  0.3082997319954575
  0.2542748422524912  0.5032869785173274  0.0065805146910268
  0.7528359363767820  0.4973975470810356  0.0063923422918189
  0.0016202192487166  0.2502425452898845  0.5014916494432889
  0.0014916494432892  0.7502425452898843  0.5016202192487158
  0.5063923422918185 -0.0026024529189644  0.2528359363767824
  0.5065805146910269  0.0032869785173273  0.7542748422524920
  0.2537759658264502 -0.0008107046739072  0.5014836864296638
  0.7528245756069454  0.0014903801664425  0.5014656320126303
  0.5102721526234867  0.2501306874310639  0.0014708806973813
  0.5014708806973812  0.7501306874310640  0.0102721526234869
  0.0014656320126307  0.5014903801664424  0.2528245756069453
  0.0014836864296637  0.4991892953260928  0.7537759658264497
 -0.0724231226093211 -0.0011279850612461  0.0048217908628035
  0.5048217908628035  0.4988720149387536  0.4275768773906788
  0.1666094200629811  0.1634253372592972  0.1640143111680743
  0.1638462332482072  0.8366441408580051  0.8378282606735862
  0.6640143111680743  0.6634253372592968  0.6666094200629811
  0.3378282606735862  0.3366441408580055  0.6638462332482067
 
  0.00000000E+00  0.00000000E+00  0.00000000E+00
  0.00000000E+00  0.00000000E+00  0.00000000E+00
  0.00000000E+00  0.00000000E+00  0.00000000E+00
  0.00000000E+00  0.00000000E+00  0.00000000E+00
  0.00000000E+00  0.00000000E+00  0.00000000E+00
  0.00000000E+00  0.00000000E+00  0.00000000E+00
  0.00000000E+00  0.00000000E+00  0.00000000E+00
  0.00000000E+00  0.00000000E+00  0.00000000E+00
  0.00000000E+00  0.00000000E+00  0.00000000E+00
  0.00000000E+00  0.00000000E+00  0.00000000E+00
  0.00000000E+00  0.00000000E+00  0.00000000E+00
  0.00000000E+00  0.00000000E+00  0.00000000E+00
  0.00000000E+00  0.00000000E+00  0.00000000E+00
  0.00000000E+00  0.00000000E+00  0.00000000E+00
  0.00000000E+00  0.00000000E+00  0.00000000E+00
  0.00000000E+00  0.00000000E+00  0.00000000E+00
  0.00000000E+00  0.00000000E+00  0.00000000E+00
  0.00000000E+00  0.00000000E+00  0.00000000E+00
  0.00000000E+00  0.00000000E+00  0.00000000E+00
  0.00000000E+00  0.00000000E+00  0.00000000E+00
  0.00000000E+00  0.00000000E+00  0.00000000E+00
  0.00000000E+00  0.00000000E+00  0.00000000E+00
  0.00000000E+00  0.00000000E+00  0.00000000E+00
  0.00000000E+00  0.00000000E+00  0.00000000E+00
  0.00000000E+00  0.00000000E+00  0.00000000E+00
  0.00000000E+00  0.00000000E+00  0.00000000E+00
  0.00000000E+00  0.00000000E+00  0.00000000E+00
  0.00000000E+00  0.00000000E+00  0.00000000E+00
  0.00000000E+00  0.00000000E+00  0.00000000E+00
  0.00000000E+00  0.00000000E+00  0.00000000E+00
  0.00000000E+00  0.00000000E+00  0.00000000E+00
  0.00000000E+00  0.00000000E+00  0.00000000E+00
  0.00000000E+00  0.00000000E+00  0.00000000E+00
  0.00000000E+00  0.00000000E+00  0.00000000E+00
  0.00000000E+00  0.00000000E+00  0.00000000E+00
  0.00000000E+00  0.00000000E+00  0.00000000E+00
  0.00000000E+00  0.00000000E+00  0.00000000E+00
  0.00000000E+00  0.00000000E+00  0.00000000E+00
  0.00000000E+00  0.00000000E+00  0.00000000E+00
  0.00000000E+00  0.00000000E+00  0.00000000E+00
  0.00000000E+00  0.00000000E+00  0.00000000E+00
  0.00000000E+00  0.00000000E+00  0.00000000E+00
  0.00000000E+00  0.00000000E+00  0.00000000E+00
  0.00000000E+00  0.00000000E+00  0.00000000E+00
  0.00000000E+00  0.00000000E+00  0.00000000E+00
  0.00000000E+00  0.00000000E+00  0.00000000E+00
