Sodilite                                
   1.00000000000000     
     9.2275778461217079    0.0363190552521729    0.0134223940501021
     0.0363345312180286    9.2270502467788429   -0.0149196873578431
     0.0134163638767178   -0.0149127271250301    9.2263675228034359
   O    Na   Al   Si   Cl   K 
    24     3     6     6     2     5
Direct
  0.1341288874105976  0.4634273206098153  0.1489325912072956
  0.8493699837823561  0.5395128765527644  0.1641491502871316
  0.8621345598715676  0.4700214869319818  0.8587776885241004
  0.1507007126623795  0.5438674786908488  0.8442620392659370
  0.1470707779444877  0.1377514765668330  0.4681258932393613
  0.1569249797344158  0.8513706932676434  0.5481148228770484
  0.8507762988321815  0.8627965561360218  0.4677024243116600
  0.8413201419088053  0.1504481868647535  0.5375388023278317
  0.4616731654561586  0.1598600132977044  0.1545966280354356
  0.5317417577935828  0.1484502762201672  0.8673180944416911
  0.4547521081032376  0.8396202581992551  0.8528700712758316
  0.5352435451974651  0.8576583785460614  0.1378919363873432
  0.9616268436597438  0.6416457892741105  0.6531197800819302
  0.0353940262511826  0.3562691600785008  0.6597492339097439
  0.9602048860132389  0.3587632016153458  0.3519762071951213
  0.0431664610923431  0.6462595318572951  0.3493061661003923
  0.6321768320972356  0.6463626386725368  0.9681347794630237
  0.3471970091068388  0.6619465260527726  0.0503699456102677
  0.3645517234925316  0.3580496308792503  0.9692574203235532
  0.6519932040063074  0.3395468659545341  0.0443555713649921
  0.6525385188267335  0.9664801712134363  0.6486935947046539
  0.6504486437397239  0.0406543221857060  0.3602828516295492
  0.3425937378433646  0.9549086153524537  0.3578807780201568
  0.3501692140489623  0.0377397175918103  0.6427887780129405
  0.2024622038121133  0.7963184271792361  0.7979795181969610
  0.6909392301393149  0.3088409223886006  0.3067306218636032
  0.3011199945260937  0.6973811894918759  0.3028009126618980
  0.2488598512445777  0.5060532619686042  0.0044586198208138
  0.7478341707657116  0.5005751618790456  0.0088260117282321
 -0.0022985980428159  0.2517309844719143  0.5052109291220147
  0.0014564738418917  0.7513593586518285  0.5046081520304240
  0.4964757912511628  0.0024644235076252  0.2550731364735912
  0.4971437284488112 -0.0014847681254884  0.7555549697938067
  0.2488370045512112 -0.0035569343915995  0.5046849480974355
  0.7483217704325990  0.0042330873163475  0.5043186249898746
  0.5012815059376444  0.2519324526458583  0.0090832250057234
  0.4926855298524452  0.7513958724516463  0.0034562319867451
 -0.0029311324761048  0.5025976007126247  0.2546043289685487
  0.0019986250039050  0.5031684037611719  0.7551085929558347
  0.0367767039816831 -0.0368579776758600 -0.0330138870425460
  0.4960680750558579  0.5037565540999385  0.4359022521735537
  0.1714119228148395  0.1738424551558750  0.1749965248723035
  0.8250349878905704  0.8293839841357935  0.1744596859337263
  0.8280672264752383  0.1731672996160242  0.8307966769777971
  0.6680660046609722  0.6688970245083871  0.6686793659654807
  0.3324909109568385  0.3313900436389486  0.6694853088271844
 
  0.00000000E+00  0.00000000E+00  0.00000000E+00
  0.00000000E+00  0.00000000E+00  0.00000000E+00
  0.00000000E+00  0.00000000E+00  0.00000000E+00
  0.00000000E+00  0.00000000E+00  0.00000000E+00
  0.00000000E+00  0.00000000E+00  0.00000000E+00
  0.00000000E+00  0.00000000E+00  0.00000000E+00
  0.00000000E+00  0.00000000E+00  0.00000000E+00
  0.00000000E+00  0.00000000E+00  0.00000000E+00
  0.00000000E+00  0.00000000E+00  0.00000000E+00
  0.00000000E+00  0.00000000E+00  0.00000000E+00
  0.00000000E+00  0.00000000E+00  0.00000000E+00
  0.00000000E+00  0.00000000E+00  0.00000000E+00
  0.00000000E+00  0.00000000E+00  0.00000000E+00
  0.00000000E+00  0.00000000E+00  0.00000000E+00
  0.00000000E+00  0.00000000E+00  0.00000000E+00
  0.00000000E+00  0.00000000E+00  0.00000000E+00
  0.00000000E+00  0.00000000E+00  0.00000000E+00
  0.00000000E+00  0.00000000E+00  0.00000000E+00
  0.00000000E+00  0.00000000E+00  0.00000000E+00
  0.00000000E+00  0.00000000E+00  0.00000000E+00
  0.00000000E+00  0.00000000E+00  0.00000000E+00
  0.00000000E+00  0.00000000E+00  0.00000000E+00
  0.00000000E+00  0.00000000E+00  0.00000000E+00
  0.00000000E+00  0.00000000E+00  0.00000000E+00
  0.00000000E+00  0.00000000E+00  0.00000000E+00
  0.00000000E+00  0.00000000E+00  0.00000000E+00
  0.00000000E+00  0.00000000E+00  0.00000000E+00
  0.00000000E+00  0.00000000E+00  0.00000000E+00
  0.00000000E+00  0.00000000E+00  0.00000000E+00
  0.00000000E+00  0.00000000E+00  0.00000000E+00
  0.00000000E+00  0.00000000E+00  0.00000000E+00
  0.00000000E+00  0.00000000E+00  0.00000000E+00
  0.00000000E+00  0.00000000E+00  0.00000000E+00
  0.00000000E+00  0.00000000E+00  0.00000000E+00
  0.00000000E+00  0.00000000E+00  0.00000000E+00
  0.00000000E+00  0.00000000E+00  0.00000000E+00
  0.00000000E+00  0.00000000E+00  0.00000000E+00
  0.00000000E+00  0.00000000E+00  0.00000000E+00
  0.00000000E+00  0.00000000E+00  0.00000000E+00
  0.00000000E+00  0.00000000E+00  0.00000000E+00
  0.00000000E+00  0.00000000E+00  0.00000000E+00
  0.00000000E+00  0.00000000E+00  0.00000000E+00
  0.00000000E+00  0.00000000E+00  0.00000000E+00
  0.00000000E+00  0.00000000E+00  0.00000000E+00
  0.00000000E+00  0.00000000E+00  0.00000000E+00
  0.00000000E+00  0.00000000E+00  0.00000000E+00
