Sodilite                                
   1.00000000000000     
     9.0978069085484758    0.0445782744389717    0.0116627457537664
     0.0445885361831422    9.0998639175036526    0.0111150710075790
     0.0116745129234789    0.0111312579667116    9.1013212477524448
   O    Na   Al   Si   Cl   K 
    24     5     6     6     2     3
Direct
  0.1358803845470845  0.4532874166517551  0.1496831412211686
  0.8554185373820206  0.5595580112127285  0.1601364809231252
  0.8631822939245670  0.4512115289991478  0.8576646512143689
  0.1487825086195506  0.5527581186808169  0.8480976261249785
  0.1490325399583680  0.1381101594889697  0.4575435960338633
  0.1565692547581751  0.8542534005735340  0.5575861279597216
  0.8537026748997614  0.8644909144928539  0.4482678567837361
  0.8462408572874925  0.1469908224941996  0.5569738184596521
  0.4546925984947776  0.1456880214754202  0.1387017648116734
  0.5546764918943295  0.1593297167167815  0.8558504275110120
  0.4500245183379658  0.8529157255277976  0.8663276220140379
  0.5574406027410728  0.8466724591290151  0.1487097641459052
  0.9520523241153681  0.6429909491173443  0.6550721810936503
  0.0477900216822226  0.3596656551550933  0.6557667759683699
  0.9481338125758266  0.3597272178971257  0.3514154666390758
  0.0549845862473695  0.6424567336679250  0.3540329057346347
  0.6288082064624408  0.6395877683307635  0.9574762479181799
  0.3472207522303122  0.6659288907122900  0.0594289998610907
  0.3716848910706853  0.3612057799495132  0.9614885897052159
  0.6566183301146032  0.3386568003299735  0.0579532098949894
  0.6525292788493433  0.9521756303356345  0.6433731041815388
  0.6527977305110151  0.0566955118209412  0.3617481487656570
  0.3489892389951806  0.9476883459140423  0.3605568779008231
  0.3518758268621598  0.0461904212497910  0.6451204529106407
  0.8107706002824324  0.8123083760299316  0.1898268512514203
  0.8144836772548554  0.1863284878497159  0.8162881740486673
  0.1849115960309715  0.8128177763786646  0.8165717141186520
  0.6949361586230617  0.3072725969389320  0.3093167649900984
  0.3059462354099540  0.6946761170409559  0.3105255954747091
  0.2521077625433041  0.5068279352373680  0.0064191939133141
  0.7516253570023802  0.4997283261863004  0.0091844808660951
 -0.0005271051673352  0.2517500976024113  0.5050940274699539
  0.0024522683333288  0.7521001712446206  0.5049129896237216
  0.5031567497164394 -0.0003382059646189  0.2545954516569841
  0.5035058542103267  0.0022351028279254  0.7557137440838833
  0.2518141656890395 -0.0024159058174218  0.5054530525460144
  0.7517679883486315  0.0042523417091273  0.5035491345682764
  0.5085939002679027  0.2517920389643445  0.0049113219320975
  0.4974317890106528  0.7515411788119274  0.0087908188149561
 -0.0009668711606852  0.5037804204303157  0.2546142940105016
  0.0027507016172635  0.5023888608936431  0.7554647130795715
 -0.0355032032177570 -0.0351461772730314 -0.0298888978133026
  0.5013229691586922  0.5015081820386919  0.4239343156797362
  0.1585245550157388  0.1575913529301177  0.1586676029863583
  0.6601372855988278  0.6606099456369521  0.6640968676077628
  0.3416293028702782  0.3401549803796675  0.6629819513134192
 
  0.00000000E+00  0.00000000E+00  0.00000000E+00
  0.00000000E+00  0.00000000E+00  0.00000000E+00
  0.00000000E+00  0.00000000E+00  0.00000000E+00
  0.00000000E+00  0.00000000E+00  0.00000000E+00
  0.00000000E+00  0.00000000E+00  0.00000000E+00
  0.00000000E+00  0.00000000E+00  0.00000000E+00
  0.00000000E+00  0.00000000E+00  0.00000000E+00
  0.00000000E+00  0.00000000E+00  0.00000000E+00
  0.00000000E+00  0.00000000E+00  0.00000000E+00
  0.00000000E+00  0.00000000E+00  0.00000000E+00
  0.00000000E+00  0.00000000E+00  0.00000000E+00
  0.00000000E+00  0.00000000E+00  0.00000000E+00
  0.00000000E+00  0.00000000E+00  0.00000000E+00
  0.00000000E+00  0.00000000E+00  0.00000000E+00
  0.00000000E+00  0.00000000E+00  0.00000000E+00
  0.00000000E+00  0.00000000E+00  0.00000000E+00
  0.00000000E+00  0.00000000E+00  0.00000000E+00
  0.00000000E+00  0.00000000E+00  0.00000000E+00
  0.00000000E+00  0.00000000E+00  0.00000000E+00
  0.00000000E+00  0.00000000E+00  0.00000000E+00
  0.00000000E+00  0.00000000E+00  0.00000000E+00
  0.00000000E+00  0.00000000E+00  0.00000000E+00
  0.00000000E+00  0.00000000E+00  0.00000000E+00
  0.00000000E+00  0.00000000E+00  0.00000000E+00
  0.00000000E+00  0.00000000E+00  0.00000000E+00
  0.00000000E+00  0.00000000E+00  0.00000000E+00
  0.00000000E+00  0.00000000E+00  0.00000000E+00
  0.00000000E+00  0.00000000E+00  0.00000000E+00
  0.00000000E+00  0.00000000E+00  0.00000000E+00
  0.00000000E+00  0.00000000E+00  0.00000000E+00
  0.00000000E+00  0.00000000E+00  0.00000000E+00
  0.00000000E+00  0.00000000E+00  0.00000000E+00
  0.00000000E+00  0.00000000E+00  0.00000000E+00
  0.00000000E+00  0.00000000E+00  0.00000000E+00
  0.00000000E+00  0.00000000E+00  0.00000000E+00
  0.00000000E+00  0.00000000E+00  0.00000000E+00
  0.00000000E+00  0.00000000E+00  0.00000000E+00
  0.00000000E+00  0.00000000E+00  0.00000000E+00
  0.00000000E+00  0.00000000E+00  0.00000000E+00
  0.00000000E+00  0.00000000E+00  0.00000000E+00
  0.00000000E+00  0.00000000E+00  0.00000000E+00
  0.00000000E+00  0.00000000E+00  0.00000000E+00
  0.00000000E+00  0.00000000E+00  0.00000000E+00
  0.00000000E+00  0.00000000E+00  0.00000000E+00
  0.00000000E+00  0.00000000E+00  0.00000000E+00
  0.00000000E+00  0.00000000E+00  0.00000000E+00
