Sodilite                                
   1.00000000000000     
     9.1608787862769123    0.0249669175192407    0.0064753001247345
     0.0249529576906090    9.1498733144004838   -0.0249529576906089
     0.0064753001247345   -0.0249669175192407    9.1608787862769123
   O    Na   Al   Si   Cl   K 
    24     4     6     6     2     4
Direct
  0.1401988511938919  0.4603806451396383  0.1563015613861385
  0.8546968118304828  0.5429035162653997  0.1530559814777601
  0.8567870851100409  0.4475155625168168  0.8520627383254258
  0.1397978130454942  0.5478035771166444  0.8484677857378360
  0.1379862715996600  0.1322726970078844  0.4663709610873598
  0.1598876112760581  0.8447135221894838  0.5506096593848915
  0.8574522931233328  0.8708270532687000  0.4598012328004907
  0.8337030977836859  0.1525011425682735  0.5562278623172335
  0.4588676985873272  0.1485808872230978  0.1425411507397016
  0.5499891966516706  0.1545103405481252  0.8574557139291261
  0.4482346540032857  0.8502618522414138  0.8609385885384276
  0.5396715003033193  0.8448266779807011  0.1458465306684909
  0.9437721376827665  0.6525011425682733  0.6662969022163141
  0.0401987671995093  0.3708270532686988  0.6425477068766672
  0.9493903406151084  0.3447135221894839  0.3401123887239419
  0.0336290389126401  0.6322726970078844  0.3620137284003402
  0.6425442860708739  0.6545103405481251  0.9500108033483294
  0.3574588492602983  0.6485808872230977  0.0411323014126731
  0.3541534693315094  0.3448266779807016  0.9603284996966807
  0.6390614114615724  0.3502618522414143  0.0517653459967143
  0.6479372616745742  0.9475155625168172  0.6432129148899591
  0.6515322142621640  0.0478035771166442  0.3602021869545055
  0.3436984386138617  0.9603806451396386  0.3598011488061082
  0.3469440185222400  0.0429035162654000  0.6453031881695172
  0.8028548878330806  0.1976079171092658  0.8054123957699503
  0.1918619405051037  0.8075326018902261  0.8071000280198405
  0.6945876042300497  0.6976079171092661  0.6971451121669194
  0.6928999719801595  0.3075326018902259  0.3081380594948963
  0.2458736799541304  0.4991563638586990  0.0014976544368662
  0.7468875447985825  0.5000101592923362  0.0014719017904813
 -0.0097093371816763  0.2498452995773792  0.5032145765757065
 -0.0032145765757063  0.7498452995773794  0.5097093371816764
  0.4985023455631340 -0.0008436361413008  0.2541263200458696
  0.4985280982095188  0.0000101592923362  0.7531124552014175
  0.2461243486179108 -0.0043077713697222  0.5062562060008747
  0.7472886974907529  0.0038960531776816  0.5057477324614292
  0.4998114826817191  0.2496032804375843  0.0025520270162765
  0.4974479729837236  0.7496032804375850  0.0001885173182806
 -0.0062562060008749  0.4956922286302781  0.2538756513820892
 -0.0057477324614288  0.5038960531776817  0.7527113025092471
 -0.0043650654515292  0.0015687752311365 -0.0718884235369752
  0.5718884235369751  0.5015687752311365  0.5043650654515290
  0.1630831117124007  0.1619455264387639  0.1654322813357794
  0.8352877891672500  0.8360443202904712  0.1657958183728644
  0.3342041816271359  0.3360443202904710  0.6647122108327500
  0.3345677186642206  0.6619455264387635  0.3369168882875992
 
  0.00000000E+00  0.00000000E+00  0.00000000E+00
  0.00000000E+00  0.00000000E+00  0.00000000E+00
  0.00000000E+00  0.00000000E+00  0.00000000E+00
  0.00000000E+00  0.00000000E+00  0.00000000E+00
  0.00000000E+00  0.00000000E+00  0.00000000E+00
  0.00000000E+00  0.00000000E+00  0.00000000E+00
  0.00000000E+00  0.00000000E+00  0.00000000E+00
  0.00000000E+00  0.00000000E+00  0.00000000E+00
  0.00000000E+00  0.00000000E+00  0.00000000E+00
  0.00000000E+00  0.00000000E+00  0.00000000E+00
  0.00000000E+00  0.00000000E+00  0.00000000E+00
  0.00000000E+00  0.00000000E+00  0.00000000E+00
  0.00000000E+00  0.00000000E+00  0.00000000E+00
  0.00000000E+00  0.00000000E+00  0.00000000E+00
  0.00000000E+00  0.00000000E+00  0.00000000E+00
  0.00000000E+00  0.00000000E+00  0.00000000E+00
  0.00000000E+00  0.00000000E+00  0.00000000E+00
  0.00000000E+00  0.00000000E+00  0.00000000E+00
  0.00000000E+00  0.00000000E+00  0.00000000E+00
  0.00000000E+00  0.00000000E+00  0.00000000E+00
  0.00000000E+00  0.00000000E+00  0.00000000E+00
  0.00000000E+00  0.00000000E+00  0.00000000E+00
  0.00000000E+00  0.00000000E+00  0.00000000E+00
  0.00000000E+00  0.00000000E+00  0.00000000E+00
  0.00000000E+00  0.00000000E+00  0.00000000E+00
  0.00000000E+00  0.00000000E+00  0.00000000E+00
  0.00000000E+00  0.00000000E+00  0.00000000E+00
  0.00000000E+00  0.00000000E+00  0.00000000E+00
  0.00000000E+00  0.00000000E+00  0.00000000E+00
  0.00000000E+00  0.00000000E+00  0.00000000E+00
  0.00000000E+00  0.00000000E+00  0.00000000E+00
  0.00000000E+00  0.00000000E+00  0.00000000E+00
  0.00000000E+00  0.00000000E+00  0.00000000E+00
  0.00000000E+00  0.00000000E+00  0.00000000E+00
  0.00000000E+00  0.00000000E+00  0.00000000E+00
  0.00000000E+00  0.00000000E+00  0.00000000E+00
  0.00000000E+00  0.00000000E+00  0.00000000E+00
  0.00000000E+00  0.00000000E+00  0.00000000E+00
  0.00000000E+00  0.00000000E+00  0.00000000E+00
  0.00000000E+00  0.00000000E+00  0.00000000E+00
  0.00000000E+00  0.00000000E+00  0.00000000E+00
  0.00000000E+00  0.00000000E+00  0.00000000E+00
  0.00000000E+00  0.00000000E+00  0.00000000E+00
  0.00000000E+00  0.00000000E+00  0.00000000E+00
  0.00000000E+00  0.00000000E+00  0.00000000E+00
  0.00000000E+00  0.00000000E+00  0.00000000E+00
