Sodilite                                
   1.00000000000000     
     9.1591412355855493   -0.0257850618592928    0.0042643980863508
    -0.0257818672226125    9.1513463073753929    0.0257818672226125
     0.0042643980863508    0.0257850618592928    9.1591412355855493
   O    Na   Al   Si   Cl   K 
    24     4     6     6     2     4
Direct
  0.1457152076157429  0.4620946389731228  0.1486429702681867
  0.8577800829400181  0.5469455738224164  0.1490782881699226
  0.8606598697968686  0.4456565413642617  0.8455496964120177
  0.1424958433405437  0.5441426475026524  0.8457773587593690
  0.1525330467186892  0.1414935304010158  0.4580586956937718
  0.1568094275560124  0.8553035301301546  0.5403223235592622
  0.8525908596328212  0.8593239575409704  0.4485205206495650
  0.8479713976216092  0.1428326917356907  0.5492184183698674
  0.4647745987480910  0.1425780699516344  0.1286324806685823
  0.5546389175544864  0.1616437457332769  0.8437413654524899
  0.4611410328228778  0.8609225403843620  0.8680528011017218
  0.5519752019178948  0.8351157460579064  0.1513428606595461
  0.9507815816301326  0.6428326917356907  0.6520286023783908
  0.0514794793504349  0.3593239575409701  0.6474091403671788
  0.9596776764407378  0.3553035301301547  0.3431905724439876
  0.0419413043062283  0.6414935304010160  0.3474669532813107
  0.6562586345475101  0.6616437457332767  0.9453610824455136
  0.3713675193314177  0.6425780699516342  0.0352254012519088
  0.3486571393404539  0.3351157460579067  0.9480247980821052
  0.6319471988982782  0.3609225403843614  0.0388589671771221
  0.6544503035879823  0.9456565413642618  0.6393401302031314
  0.6542226412406310  0.0441426475026528  0.3575041566594564
  0.3513570297318135  0.9620946389731222  0.3542847923842570
  0.3509217118300775  0.0469455738224161  0.6422199170599819
  0.8083014047312923  0.8063192253882574  0.1916282781232755
  0.8042561727055970  0.1963099784687846  0.8022750457575213
  0.6977249542424787  0.6963099784687846  0.6957438272944030
  0.3083717218767246  0.3063192253882575  0.6916985952687077
  0.2542777588292995  0.4967206125153781 -0.0065897321048508
  0.7528352193651425  0.5025963715993857 -0.0063986676179022
  0.0014837148549567  0.2497568886661482  0.4983847295135678
  0.0016152704864322  0.7497568886661488  0.4985162851450429
  0.5065897321048511 -0.0032793874846220  0.2457222411707004
  0.5063986676179019  0.0025963715993863  0.7471647806348575
  0.2537744414849897  0.0008100439157745  0.4985254639404346
  0.7528230897325374 -0.0014895544103127  0.4985414362527052
  0.5014790512691585  0.2498657002850742 -0.0102700069170987
  0.5102700069170985  0.7498657002850740 -0.0014790512691586
  0.0014745360595656  0.5008100439157745  0.2462255585150107
  0.0014585637472949  0.4985104455896873  0.7471769102674626
 -0.0724151817791784  0.0011251729809366 -0.0048288652053576
  0.5048288652053573  0.5011251729809363  0.5724151817791778
  0.1638506562588741  0.1633613646087874  0.1621804254806623
  0.1666141093537417  0.8365709823843214  0.8359800360848068
  0.6640199639151932  0.3365709823843211  0.3333858906462583
  0.3378195745193379  0.6633613646087875  0.3361493437411261
 
  0.00000000E+00  0.00000000E+00  0.00000000E+00
  0.00000000E+00  0.00000000E+00  0.00000000E+00
  0.00000000E+00  0.00000000E+00  0.00000000E+00
  0.00000000E+00  0.00000000E+00  0.00000000E+00
  0.00000000E+00  0.00000000E+00  0.00000000E+00
  0.00000000E+00  0.00000000E+00  0.00000000E+00
  0.00000000E+00  0.00000000E+00  0.00000000E+00
  0.00000000E+00  0.00000000E+00  0.00000000E+00
  0.00000000E+00  0.00000000E+00  0.00000000E+00
  0.00000000E+00  0.00000000E+00  0.00000000E+00
  0.00000000E+00  0.00000000E+00  0.00000000E+00
  0.00000000E+00  0.00000000E+00  0.00000000E+00
  0.00000000E+00  0.00000000E+00  0.00000000E+00
  0.00000000E+00  0.00000000E+00  0.00000000E+00
  0.00000000E+00  0.00000000E+00  0.00000000E+00
  0.00000000E+00  0.00000000E+00  0.00000000E+00
  0.00000000E+00  0.00000000E+00  0.00000000E+00
  0.00000000E+00  0.00000000E+00  0.00000000E+00
  0.00000000E+00  0.00000000E+00  0.00000000E+00
  0.00000000E+00  0.00000000E+00  0.00000000E+00
  0.00000000E+00  0.00000000E+00  0.00000000E+00
  0.00000000E+00  0.00000000E+00  0.00000000E+00
  0.00000000E+00  0.00000000E+00  0.00000000E+00
  0.00000000E+00  0.00000000E+00  0.00000000E+00
  0.00000000E+00  0.00000000E+00  0.00000000E+00
  0.00000000E+00  0.00000000E+00  0.00000000E+00
  0.00000000E+00  0.00000000E+00  0.00000000E+00
  0.00000000E+00  0.00000000E+00  0.00000000E+00
  0.00000000E+00  0.00000000E+00  0.00000000E+00
  0.00000000E+00  0.00000000E+00  0.00000000E+00
  0.00000000E+00  0.00000000E+00  0.00000000E+00
  0.00000000E+00  0.00000000E+00  0.00000000E+00
  0.00000000E+00  0.00000000E+00  0.00000000E+00
  0.00000000E+00  0.00000000E+00  0.00000000E+00
  0.00000000E+00  0.00000000E+00  0.00000000E+00
  0.00000000E+00  0.00000000E+00  0.00000000E+00
  0.00000000E+00  0.00000000E+00  0.00000000E+00
  0.00000000E+00  0.00000000E+00  0.00000000E+00
  0.00000000E+00  0.00000000E+00  0.00000000E+00
  0.00000000E+00  0.00000000E+00  0.00000000E+00
  0.00000000E+00  0.00000000E+00  0.00000000E+00
  0.00000000E+00  0.00000000E+00  0.00000000E+00
  0.00000000E+00  0.00000000E+00  0.00000000E+00
  0.00000000E+00  0.00000000E+00  0.00000000E+00
  0.00000000E+00  0.00000000E+00  0.00000000E+00
  0.00000000E+00  0.00000000E+00  0.00000000E+00
