Sodilite                                
   1.00000000000000     
     9.2317039171147837   -0.0061420256428676   -0.0056474207689482
    -0.0061229477636924    9.2107155135149590    0.0130422096113941
    -0.0056369264631013    0.0130448899230355    9.2120315796305139
   O    Na   Al   Si   Cl   K 
    24     3     6     6     2     5
Direct
  0.1512311594259089  0.4513812385377203  0.1569159345705374
  0.8652551983856208  0.5313704367157976  0.1462547982368921
  0.8522838747010211  0.4639665555532411  0.8382944071709292
  0.1382476138068192  0.5353801909755793  0.8537039939713595
  0.1609982898572038  0.1478387447463620  0.4500574791888293
  0.1467994720731779  0.8642430936936469  0.5364207072475307
  0.8431342705165578  0.8478759658647638  0.4651680065999981
  0.8551588775131682  0.1373291405129158  0.5305253149298002
  0.4542079034034479  0.1610941348165117  0.1506639280139382
  0.5343748518769982  0.1409149181266992  0.8649314452091523
  0.4636940908824028  0.8364452732378770  0.8470655324459171
  0.5346739184667082  0.8552718414804856  0.1336429107790412
  0.9713282771820534  0.6307697582849645  0.6401338165392751
  0.0459091420937459  0.3427924787623942  0.6621981064342408
  0.9646623474943800  0.3696792947361143  0.3598432878955500
  0.0469712902104012  0.6533163561300548  0.3325806701729346
  0.6428395647449413  0.6493181506862872  0.9682277891334427
  0.3549066851444428  0.6525552265017519  0.0438738102495519
  0.3601249505897465  0.3485845823888568  0.9510408868817201
  0.6446303193862434  0.3428069574816199  0.0343793991160506
  0.6524502627476140  0.9673371198105339  0.6411520348302379
  0.6546137880920391  0.0342284365559441  0.3525522988903635
  0.3513426772799623  0.9517554086915888  0.3588671178430153
  0.3450014934633409  0.0440533857488309  0.6427504899253705
  0.2077068049361965  0.2074990595134167  0.2065346617842012
  0.3008542944258349  0.3028966775241841  0.6972109951691320
  0.3019252218736445  0.6974847803622698  0.3019968594565768
  0.2517689236154914  0.4967614888900422  0.0008923940374066
  0.7519988627921171  0.4960302389606022 -0.0027582985527803
  0.0068926724506062  0.2485555674786654  0.4995558981616444
  0.0032906689569790  0.7477171731859288  0.4934775420467380
  0.4983615196225749  0.0012486451012835  0.2483689880439386
  0.4979171129187277 -0.0033552825307285  0.7477086521106822
  0.2513032837383095  0.0015239287881130  0.4966607655239788
  0.7517044135495201 -0.0030852759366697  0.4968072100953966
  0.4981336228078640  0.2481654874651220  0.0003273123210371
  0.4986341682469958  0.7478869633870411 -0.0020941311973654
  0.0072174566416568  0.5004838702498564  0.2485294027982962
  0.0027654767710450  0.4932786230467320  0.7479590048677097
  0.0419329313352838  0.0383695935751802  0.0381475352530341
  0.4302125614181577  0.4980065059181339  0.4977593022426529
  0.8282259011320344  0.8283896594161150  0.1692592697808315
  0.8278144699050799  0.1683728338779513  0.8279067487352071
  0.1712256066367935  0.8262750435550617  0.8266541518182364
  0.6662304002574497  0.6648683653133888  0.6655280844783757
  0.6690433066296910  0.3323173628177675  0.3323234847493903
 
  0.00000000E+00  0.00000000E+00  0.00000000E+00
  0.00000000E+00  0.00000000E+00  0.00000000E+00
  0.00000000E+00  0.00000000E+00  0.00000000E+00
  0.00000000E+00  0.00000000E+00  0.00000000E+00
  0.00000000E+00  0.00000000E+00  0.00000000E+00
  0.00000000E+00  0.00000000E+00  0.00000000E+00
  0.00000000E+00  0.00000000E+00  0.00000000E+00
  0.00000000E+00  0.00000000E+00  0.00000000E+00
  0.00000000E+00  0.00000000E+00  0.00000000E+00
  0.00000000E+00  0.00000000E+00  0.00000000E+00
  0.00000000E+00  0.00000000E+00  0.00000000E+00
  0.00000000E+00  0.00000000E+00  0.00000000E+00
  0.00000000E+00  0.00000000E+00  0.00000000E+00
  0.00000000E+00  0.00000000E+00  0.00000000E+00
  0.00000000E+00  0.00000000E+00  0.00000000E+00
  0.00000000E+00  0.00000000E+00  0.00000000E+00
  0.00000000E+00  0.00000000E+00  0.00000000E+00
  0.00000000E+00  0.00000000E+00  0.00000000E+00
  0.00000000E+00  0.00000000E+00  0.00000000E+00
  0.00000000E+00  0.00000000E+00  0.00000000E+00
  0.00000000E+00  0.00000000E+00  0.00000000E+00
  0.00000000E+00  0.00000000E+00  0.00000000E+00
  0.00000000E+00  0.00000000E+00  0.00000000E+00
  0.00000000E+00  0.00000000E+00  0.00000000E+00
  0.00000000E+00  0.00000000E+00  0.00000000E+00
  0.00000000E+00  0.00000000E+00  0.00000000E+00
  0.00000000E+00  0.00000000E+00  0.00000000E+00
  0.00000000E+00  0.00000000E+00  0.00000000E+00
  0.00000000E+00  0.00000000E+00  0.00000000E+00
  0.00000000E+00  0.00000000E+00  0.00000000E+00
  0.00000000E+00  0.00000000E+00  0.00000000E+00
  0.00000000E+00  0.00000000E+00  0.00000000E+00
  0.00000000E+00  0.00000000E+00  0.00000000E+00
  0.00000000E+00  0.00000000E+00  0.00000000E+00
  0.00000000E+00  0.00000000E+00  0.00000000E+00
  0.00000000E+00  0.00000000E+00  0.00000000E+00
  0.00000000E+00  0.00000000E+00  0.00000000E+00
  0.00000000E+00  0.00000000E+00  0.00000000E+00
  0.00000000E+00  0.00000000E+00  0.00000000E+00
  0.00000000E+00  0.00000000E+00  0.00000000E+00
  0.00000000E+00  0.00000000E+00  0.00000000E+00
  0.00000000E+00  0.00000000E+00  0.00000000E+00
  0.00000000E+00  0.00000000E+00  0.00000000E+00
  0.00000000E+00  0.00000000E+00  0.00000000E+00
  0.00000000E+00  0.00000000E+00  0.00000000E+00
  0.00000000E+00  0.00000000E+00  0.00000000E+00
