Sodilite                                
   1.00000000000000     
     9.1086818103044269   -0.0158400429328206   -0.0145080722424635
    -0.0158433554085617    9.0955433793894205   -0.0137772870141802
    -0.0145131142100781   -0.0137700754615766    9.0943326648047798
   O    Na   Al   Si   Cl   K 
    24     5     6     6     2     3
Direct
  0.1417380003004613  0.4451070761456942  0.1489188486484075
  0.8573421789926389  0.5431948397594047  0.1511248409582556
  0.8583140332841239  0.4527943643353664  0.8473844761866215
  0.1400293681006858  0.5565099446054589  0.8480907321130524
  0.1502319914729947  0.1392903665983213  0.4439234510057394
  0.1494957124450605  0.8594173356355679  0.5561292175957178
  0.8483607205259034  0.8557214759049703  0.4539633320378195
  0.8462809056217727  0.1416174206624957  0.5437196106386850
  0.4442763732089916  0.1628224203025547  0.1528049966672013
  0.5410143609410182  0.1369420988980218  0.8690115085225089
  0.4412767067030017  0.8355123954558554  0.8458505333276797
  0.5425475113255308  0.8593198457315355  0.1277706211677957
  0.9467695001597934  0.6343599054552382  0.6435860668667212
  0.0543341871498959  0.3520142450377266  0.6572451074501253
  0.9559739558101461  0.3636299148286616  0.3546093539347738
  0.0550163363855636  0.6473125697801452  0.3407751618148894
  0.6450269160279074  0.6567381461040354  0.9466061228534688
  0.3634529325299146  0.6437555740723313  0.0544331931355234
  0.3523136881969913  0.3445719199743472  0.9422088157707277
  0.6356292700781564  0.3503737790703128  0.0415956211838641
  0.6540950218185246  0.9470559069966372  0.6474344673385110
  0.6446414997426816  0.0404090666953081  0.3607003502404924
  0.3425788684676364  0.9414159551021946  0.3548060758286631
  0.3523911513890727  0.0557970534242705  0.6338236223025637
  0.1917625226095429  0.1933281435944249  0.1922887928105358
  0.1940631548254081  0.8031688877859651  0.8028075316385898
  0.6830849723097692  0.6865332308471414  0.6856140632808385
  0.3099609140050021  0.3112945035547132  0.6888645623472048
  0.3104740906725151  0.6881888334027609  0.3102370582587223
  0.2489517743779314  0.4981440850383131 -0.0028116412775944
  0.7477617119082653  0.5005137625691819 -0.0029405582025894
  0.0014014594879722  0.2483443871300923  0.5008490225598543
  0.0012216883703250  0.7482420572202318  0.4979101890161509
  0.4925716561188652  0.0004234754990000  0.2481678624641349
  0.4953258533473993 -0.0060915670238191  0.7483208365226198
  0.2486002900468720 -0.0017591078869468  0.4974536295702803
  0.7477586184296990 -0.0036821650450274  0.5010580092652136
  0.4927426856706251  0.2483327567687358  0.0007625043125057
  0.4968218005594054  0.7486433921647593 -0.0062156525099456
  0.0022706027312995  0.5000513747062426  0.2485697063833809
  0.0004217712909259  0.4986344012123858  0.7486229306677123
  0.0789770732330635 -0.0024487619394564 -0.0026564097658439
  0.4604103457950505  0.5335845465860899  0.5333954950894018
  0.8383296280764170  0.8396240743822683  0.1595168773258676
  0.8371714516310886  0.1588463673719325  0.8402806271753021
  0.6567847438240899  0.3423997014845560  0.3433884354778481
 
  0.00000000E+00  0.00000000E+00  0.00000000E+00
  0.00000000E+00  0.00000000E+00  0.00000000E+00
  0.00000000E+00  0.00000000E+00  0.00000000E+00
  0.00000000E+00  0.00000000E+00  0.00000000E+00
  0.00000000E+00  0.00000000E+00  0.00000000E+00
  0.00000000E+00  0.00000000E+00  0.00000000E+00
  0.00000000E+00  0.00000000E+00  0.00000000E+00
  0.00000000E+00  0.00000000E+00  0.00000000E+00
  0.00000000E+00  0.00000000E+00  0.00000000E+00
  0.00000000E+00  0.00000000E+00  0.00000000E+00
  0.00000000E+00  0.00000000E+00  0.00000000E+00
  0.00000000E+00  0.00000000E+00  0.00000000E+00
  0.00000000E+00  0.00000000E+00  0.00000000E+00
  0.00000000E+00  0.00000000E+00  0.00000000E+00
  0.00000000E+00  0.00000000E+00  0.00000000E+00
  0.00000000E+00  0.00000000E+00  0.00000000E+00
  0.00000000E+00  0.00000000E+00  0.00000000E+00
  0.00000000E+00  0.00000000E+00  0.00000000E+00
  0.00000000E+00  0.00000000E+00  0.00000000E+00
  0.00000000E+00  0.00000000E+00  0.00000000E+00
  0.00000000E+00  0.00000000E+00  0.00000000E+00
  0.00000000E+00  0.00000000E+00  0.00000000E+00
  0.00000000E+00  0.00000000E+00  0.00000000E+00
  0.00000000E+00  0.00000000E+00  0.00000000E+00
  0.00000000E+00  0.00000000E+00  0.00000000E+00
  0.00000000E+00  0.00000000E+00  0.00000000E+00
  0.00000000E+00  0.00000000E+00  0.00000000E+00
  0.00000000E+00  0.00000000E+00  0.00000000E+00
  0.00000000E+00  0.00000000E+00  0.00000000E+00
  0.00000000E+00  0.00000000E+00  0.00000000E+00
  0.00000000E+00  0.00000000E+00  0.00000000E+00
  0.00000000E+00  0.00000000E+00  0.00000000E+00
  0.00000000E+00  0.00000000E+00  0.00000000E+00
  0.00000000E+00  0.00000000E+00  0.00000000E+00
  0.00000000E+00  0.00000000E+00  0.00000000E+00
  0.00000000E+00  0.00000000E+00  0.00000000E+00
  0.00000000E+00  0.00000000E+00  0.00000000E+00
  0.00000000E+00  0.00000000E+00  0.00000000E+00
  0.00000000E+00  0.00000000E+00  0.00000000E+00
  0.00000000E+00  0.00000000E+00  0.00000000E+00
  0.00000000E+00  0.00000000E+00  0.00000000E+00
  0.00000000E+00  0.00000000E+00  0.00000000E+00
  0.00000000E+00  0.00000000E+00  0.00000000E+00
  0.00000000E+00  0.00000000E+00  0.00000000E+00
  0.00000000E+00  0.00000000E+00  0.00000000E+00
  0.00000000E+00  0.00000000E+00  0.00000000E+00
