Sodilite                                
   1.00000000000000     
     9.2112121086058849   -0.0130187420375954    0.0061829469612719
    -0.0130215005616805    9.2124768978878144   -0.0057348551523939
     0.0062023353396924   -0.0057457364629379    9.2317269558271526
   O    Na   Al   Si   Cl   K 
    24     3     6     6     2     5
Direct
  0.1373238403298541  0.4694454819933953  0.1448481743703248
  0.8478740547109822  0.5348803413390416  0.1568880943266120
  0.8642497767417329  0.4635460000650282  0.8531934588003688
  0.1478581375252828  0.5499172608519204  0.8389836032701565
  0.1409317178436623  0.1350654886074306  0.4655727965225710
  0.1610993762382945  0.8493343116052662  0.5457680365604048
  0.8552635432467334  0.8663548538394972  0.4652912464013763
  0.8364394298948689  0.1529270899414818  0.5363368186496938
  0.4639140792118887  0.1617199401054285  0.1477492347712336
  0.5353957532238413  0.1462948792269190  0.8617774420659835
  0.4514209169520506  0.8430670917378853  0.8487591557455776
  0.5314163164320812  0.8537248456580252  0.1347456931519004
  0.9517667712201652  0.6411409156871477  0.6486818561510120
  0.0440536620141323  0.3572528918529373  0.6549885455243107
  0.9672847603885996  0.3588457029749612  0.3475415347471157
  0.0342675543899355  0.6474139864765815  0.3453916602686803
  0.6533078004344417  0.6673975794631860  0.9530144022434497
  0.3696698101456460  0.6401827905518944  0.0353459012130013
  0.3428264007101787  0.3378146500805398  0.9540950004873497
  0.6307735936874646  0.3598553185375248  0.0287266934670358
  0.6525402342701583  0.9561409854273889  0.6450623851619556
  0.6493462463936154  0.0318251901570954  0.3571485508649616
  0.3427977889482746  0.9655772226319661  0.3553777138814146
  0.3485707309546739  0.0489449401576381  0.6398777204934309
  0.2075190498612240  0.7934459128179382  0.7922976884323187
  0.6974411417563903  0.6979951196674128  0.6980561480772438
  0.3029101772537662  0.3028275799636011  0.6991327801360506
  0.2485503616477364  0.5004493993750549 -0.0068807469331673
  0.7477301073158279  0.5065087051392867 -0.0032692551260101
 -0.0033552526008982  0.2522740628246140  0.5020675300867810
  0.0012441254171538  0.7516448381712946  0.5016485042908152
  0.4960427575322583  0.0027633225924899  0.2479748003133319
  0.4967602683533975 -0.0008846942493839  0.7482231600512205
  0.2481569170620798 -0.0003414655973095  0.5018572464199197
  0.7478989846611307  0.0020954578262394  0.5013517431080764
  0.4932917722745848  0.2520354746713939 -0.0027274454455535
  0.5005010924503027  0.7514638660085412 -0.0072017192396196
 -0.0030895373335601  0.5031782540645586  0.2482990484840584
  0.0015342559099244  0.5033295324074890  0.7487002380694564
  0.0383541778677089 -0.0381314551317944 -0.0420157622036761
  0.4979355482982014  0.5023104214299663  0.5698614399301274
  0.1683809831442517  0.1720726323273991  0.1721319969945680
  0.8284134752130232  0.8307419298710098  0.1717385833597757
  0.8262427533215637  0.1733634648102106  0.8287557699008875
  0.6648413416494005  0.3345016866361650  0.3338542820048781
  0.3323032030359729  0.6676861954036427  0.3309782501485948
 
  0.00000000E+00  0.00000000E+00  0.00000000E+00
  0.00000000E+00  0.00000000E+00  0.00000000E+00
  0.00000000E+00  0.00000000E+00  0.00000000E+00
  0.00000000E+00  0.00000000E+00  0.00000000E+00
  0.00000000E+00  0.00000000E+00  0.00000000E+00
  0.00000000E+00  0.00000000E+00  0.00000000E+00
  0.00000000E+00  0.00000000E+00  0.00000000E+00
  0.00000000E+00  0.00000000E+00  0.00000000E+00
  0.00000000E+00  0.00000000E+00  0.00000000E+00
  0.00000000E+00  0.00000000E+00  0.00000000E+00
  0.00000000E+00  0.00000000E+00  0.00000000E+00
  0.00000000E+00  0.00000000E+00  0.00000000E+00
  0.00000000E+00  0.00000000E+00  0.00000000E+00
  0.00000000E+00  0.00000000E+00  0.00000000E+00
  0.00000000E+00  0.00000000E+00  0.00000000E+00
  0.00000000E+00  0.00000000E+00  0.00000000E+00
  0.00000000E+00  0.00000000E+00  0.00000000E+00
  0.00000000E+00  0.00000000E+00  0.00000000E+00
  0.00000000E+00  0.00000000E+00  0.00000000E+00
  0.00000000E+00  0.00000000E+00  0.00000000E+00
  0.00000000E+00  0.00000000E+00  0.00000000E+00
  0.00000000E+00  0.00000000E+00  0.00000000E+00
  0.00000000E+00  0.00000000E+00  0.00000000E+00
  0.00000000E+00  0.00000000E+00  0.00000000E+00
  0.00000000E+00  0.00000000E+00  0.00000000E+00
  0.00000000E+00  0.00000000E+00  0.00000000E+00
  0.00000000E+00  0.00000000E+00  0.00000000E+00
  0.00000000E+00  0.00000000E+00  0.00000000E+00
  0.00000000E+00  0.00000000E+00  0.00000000E+00
  0.00000000E+00  0.00000000E+00  0.00000000E+00
  0.00000000E+00  0.00000000E+00  0.00000000E+00
  0.00000000E+00  0.00000000E+00  0.00000000E+00
  0.00000000E+00  0.00000000E+00  0.00000000E+00
  0.00000000E+00  0.00000000E+00  0.00000000E+00
  0.00000000E+00  0.00000000E+00  0.00000000E+00
  0.00000000E+00  0.00000000E+00  0.00000000E+00
  0.00000000E+00  0.00000000E+00  0.00000000E+00
  0.00000000E+00  0.00000000E+00  0.00000000E+00
  0.00000000E+00  0.00000000E+00  0.00000000E+00
  0.00000000E+00  0.00000000E+00  0.00000000E+00
  0.00000000E+00  0.00000000E+00  0.00000000E+00
  0.00000000E+00  0.00000000E+00  0.00000000E+00
  0.00000000E+00  0.00000000E+00  0.00000000E+00
  0.00000000E+00  0.00000000E+00  0.00000000E+00
  0.00000000E+00  0.00000000E+00  0.00000000E+00
  0.00000000E+00  0.00000000E+00  0.00000000E+00
