Sodilite                                
   1.00000000000000     
     9.2119505066719558   -0.0058043070421653    0.0129897630704324
    -0.0058151323187878    9.2312173168286993   -0.0063111692343182
     0.0129869538999397   -0.0062916369942930    9.2107170022974874
   O    Na   Al   Si   Cl   K 
    24     3     6     6     2     5
Direct
  0.1506686379053669  0.4542202627378941  0.1611000205015415
  0.8649392403223215  0.5344163135114911  0.1409173452749480
  0.8470645578340763  0.4636582104888481  0.8364381910533514
  0.1336400717865600  0.5346948499471130  0.8552699023780865
  0.1569356031246704  0.1512449310869555  0.4514098975786917
  0.1462591847372978  0.8652606414638280  0.5314105413749808
  0.8382715847239686  0.8522498651041956  0.4639175209328281
  0.8537242176771040  0.1382204561608988  0.5353983657543627
  0.4500752099755664  0.1610218774826649  0.1478633444748707
  0.5364564947300283  0.1467842035935589  0.8642639234475566
  0.4651215497979690  0.8431082254200775  0.8478725177894292
  0.5305493164297846  0.8551583406056641  0.1373196847140155
  0.9681828473282773  0.6428511701310592  0.6493336941547413
  0.0438641854820082  0.3549339910869000  0.6525340010784912
  0.9510502831570832  0.3601240965189482  0.3485703837603159
  0.0344128591419663  0.6446262737086844  0.3428115455725462
  0.6411534622106129  0.6524545493418914  0.9672963761933550
  0.3525759459553280  0.6545944393885200  0.0342590825730281
  0.3588622813548826  0.3513256034903668  0.9517602088403010
  0.6427476159826051  0.3450216464274769  0.0440572343611242
  0.6401410262485037  0.9712862623727709  0.6307771745176024
  0.6621808094277800  0.0459131741640636  0.3428222455610145
  0.3598293521327144  0.9646584604627821  0.3696737898269390
  0.3326011889630806  0.0469867177248181  0.6533106272484143
  0.2065691239899569  0.2077241837817301  0.2075375213516489
  0.3020027876127113  0.3019530701294857  0.6974314941774102
  0.6971592421852374  0.3008764453437068  0.3029032980476293
  0.2483634535343207  0.4983507652396220  0.0012456119553721
  0.7477177231704019  0.4979278388302329 -0.0033626402157365
  0.0008887477070973  0.2517737809892590  0.4967558004267556
 -0.0027663404022785  0.7520082420583116  0.4960391575689541
  0.4995540400183761  0.0068912966528341  0.2485548678646542
  0.4934885436602595  0.0032727701089926  0.7477238920473358
  0.2485340341666292  0.0072166414509502  0.5004937484950264
  0.7479640031712990  0.0027351671721511  0.4932864638675054
  0.4966649393824599  0.2512994665877333  0.0015314820909975
  0.4968175394880710  0.7517033077057991 -0.0030939641313720
  0.0003345553431913  0.4981357043153982  0.2481555163213427
 -0.0021002277415847  0.4986424367025078  0.7478933255006343
  0.0381409679497351  0.0419729823434845  0.0383637069195866
  0.4977169418092909  0.4301662939436754  0.4979630110303779
  0.8279260413996098  0.8278580146395523  0.1683696727950733
  0.8266471625385458  0.1712333140183152  0.8262535758617816
  0.1692515909107418  0.8282549100491253  0.8284153798474495
  0.6654996753510933  0.6661622522460686  0.6648433929056297
  0.3323179283252786  0.6690265532695918  0.3323080663094053
 
  0.00000000E+00  0.00000000E+00  0.00000000E+00
  0.00000000E+00  0.00000000E+00  0.00000000E+00
  0.00000000E+00  0.00000000E+00  0.00000000E+00
  0.00000000E+00  0.00000000E+00  0.00000000E+00
  0.00000000E+00  0.00000000E+00  0.00000000E+00
  0.00000000E+00  0.00000000E+00  0.00000000E+00
  0.00000000E+00  0.00000000E+00  0.00000000E+00
  0.00000000E+00  0.00000000E+00  0.00000000E+00
  0.00000000E+00  0.00000000E+00  0.00000000E+00
  0.00000000E+00  0.00000000E+00  0.00000000E+00
  0.00000000E+00  0.00000000E+00  0.00000000E+00
  0.00000000E+00  0.00000000E+00  0.00000000E+00
  0.00000000E+00  0.00000000E+00  0.00000000E+00
  0.00000000E+00  0.00000000E+00  0.00000000E+00
  0.00000000E+00  0.00000000E+00  0.00000000E+00
  0.00000000E+00  0.00000000E+00  0.00000000E+00
  0.00000000E+00  0.00000000E+00  0.00000000E+00
  0.00000000E+00  0.00000000E+00  0.00000000E+00
  0.00000000E+00  0.00000000E+00  0.00000000E+00
  0.00000000E+00  0.00000000E+00  0.00000000E+00
  0.00000000E+00  0.00000000E+00  0.00000000E+00
  0.00000000E+00  0.00000000E+00  0.00000000E+00
  0.00000000E+00  0.00000000E+00  0.00000000E+00
  0.00000000E+00  0.00000000E+00  0.00000000E+00
  0.00000000E+00  0.00000000E+00  0.00000000E+00
  0.00000000E+00  0.00000000E+00  0.00000000E+00
  0.00000000E+00  0.00000000E+00  0.00000000E+00
  0.00000000E+00  0.00000000E+00  0.00000000E+00
  0.00000000E+00  0.00000000E+00  0.00000000E+00
  0.00000000E+00  0.00000000E+00  0.00000000E+00
  0.00000000E+00  0.00000000E+00  0.00000000E+00
  0.00000000E+00  0.00000000E+00  0.00000000E+00
  0.00000000E+00  0.00000000E+00  0.00000000E+00
  0.00000000E+00  0.00000000E+00  0.00000000E+00
  0.00000000E+00  0.00000000E+00  0.00000000E+00
  0.00000000E+00  0.00000000E+00  0.00000000E+00
  0.00000000E+00  0.00000000E+00  0.00000000E+00
  0.00000000E+00  0.00000000E+00  0.00000000E+00
  0.00000000E+00  0.00000000E+00  0.00000000E+00
  0.00000000E+00  0.00000000E+00  0.00000000E+00
  0.00000000E+00  0.00000000E+00  0.00000000E+00
  0.00000000E+00  0.00000000E+00  0.00000000E+00
  0.00000000E+00  0.00000000E+00  0.00000000E+00
  0.00000000E+00  0.00000000E+00  0.00000000E+00
  0.00000000E+00  0.00000000E+00  0.00000000E+00
  0.00000000E+00  0.00000000E+00  0.00000000E+00
