Sodilite                                
   1.00000000000000     
     9.2124746201844552   -0.0130230590221244    0.0057345207678663
    -0.0130202787759270    9.2112072115882970   -0.0061837587587938
     0.0057454015579642   -0.0062031801333914    9.2317257749742740
   O    Na   Al   Si   Cl   K 
    24     3     6     6     2     5
Direct
  0.1427470729098352  0.4559463989635366  0.1549893564150175
  0.8588592441970181  0.5482331615766374  0.1486820260172543
  0.8525859893033506  0.4657323021041473  0.8453918683758200
  0.1411539685510771  0.5327149898559155  0.8475421741945375
  0.1621852717329614  0.1571735551963453  0.4540947819861403
  0.1401448654631358  0.8692264598864826  0.5287265923912852
  0.8326025233043164  0.8466922555094988  0.4530147218648587
  0.8598171955221893  0.1303299985656777  0.5353460129981806
  0.4510550696857432  0.1514292751076553  0.1398774104839019
  0.5344226268353754  0.1572023172114443  0.8553777385057628
  0.4681748620970492  0.8506531717848779  0.8571479340058236
  0.5438590258038996  0.8474600446527265  0.1450615006492821
  0.9651200702486399  0.6521258075161264  0.6568887391254367
  0.0305545785998606  0.3626759972127602  0.6448487512790305
  0.9500825318009090  0.3521423074859091  0.3389838647008618
  0.0364537284533710  0.6357502719457344  0.3531934125934049
  0.6336448417000393  0.6447362559130447  0.9652909747709627
  0.3470729753358166  0.6635607541438181  0.0363366176832525
  0.3649346312033323  0.3590680681214493  0.9655730560230806
  0.6506653211460737  0.3389002990857710  0.0457680750853401
  0.6462747845291997  0.9685838104017886  0.6347449477509519
  0.6569334349520243  0.0485787885993478  0.3487588331719910
  0.3537055462414129  0.9646043042281495  0.3617777483919845
  0.3382799389447062  0.0360861882264267  0.6477490640708174
  0.1971725083214059  0.1970897052071060  0.1991324802301230
  0.8020050912298960  0.8025602174553648  0.1980560707371316
  0.7065534243602067  0.2924816194556088  0.2922982525174558
  0.2477258408494356  0.5033552267058802  0.0020679286640961
  0.7483551064994686  0.4987558416063592  0.0016485797446117
 -0.0004492274635508  0.2514496588548658  0.4931194382191822
 -0.0065086582513582  0.7522698493109069  0.4967311950227407
  0.5008848296619840  0.0032396319568552  0.2482230829839164
  0.4972364402890534  0.0039570918774396  0.7479744367114757
  0.2479645619158217  0.0067083815082914  0.4972725442007335
  0.7485361474773773 -0.0005012558002938  0.4927981661431247
  0.5003415528044451  0.2518430194528982  0.0018572022139154
  0.4979045462701217  0.7521009838333685  0.0013513411911010
 -0.0033296473796013  0.4984657603491714  0.2487004621921011
 -0.0031781844130434  0.5030893702467609  0.7482994450187381
 -0.0023095802559524  0.0020639481620057  0.0698598264248937
  0.5381308692375750  0.4616461796214352  0.4579846531226858
  0.8323136101388794  0.1676968282202002  0.8309781030795328
  0.1654987218924761  0.8351581191482360  0.8338538203890824
  0.6692583806223072  0.6715865448584896  0.6717385826302671
  0.3279273058506235  0.3316191026241760  0.6721324753675914
  0.3266362617810919  0.6737573920496035  0.3287557106605220
 
  0.00000000E+00  0.00000000E+00  0.00000000E+00
  0.00000000E+00  0.00000000E+00  0.00000000E+00
  0.00000000E+00  0.00000000E+00  0.00000000E+00
  0.00000000E+00  0.00000000E+00  0.00000000E+00
  0.00000000E+00  0.00000000E+00  0.00000000E+00
  0.00000000E+00  0.00000000E+00  0.00000000E+00
  0.00000000E+00  0.00000000E+00  0.00000000E+00
  0.00000000E+00  0.00000000E+00  0.00000000E+00
  0.00000000E+00  0.00000000E+00  0.00000000E+00
  0.00000000E+00  0.00000000E+00  0.00000000E+00
  0.00000000E+00  0.00000000E+00  0.00000000E+00
  0.00000000E+00  0.00000000E+00  0.00000000E+00
  0.00000000E+00  0.00000000E+00  0.00000000E+00
  0.00000000E+00  0.00000000E+00  0.00000000E+00
  0.00000000E+00  0.00000000E+00  0.00000000E+00
  0.00000000E+00  0.00000000E+00  0.00000000E+00
  0.00000000E+00  0.00000000E+00  0.00000000E+00
  0.00000000E+00  0.00000000E+00  0.00000000E+00
  0.00000000E+00  0.00000000E+00  0.00000000E+00
  0.00000000E+00  0.00000000E+00  0.00000000E+00
  0.00000000E+00  0.00000000E+00  0.00000000E+00
  0.00000000E+00  0.00000000E+00  0.00000000E+00
  0.00000000E+00  0.00000000E+00  0.00000000E+00
  0.00000000E+00  0.00000000E+00  0.00000000E+00
  0.00000000E+00  0.00000000E+00  0.00000000E+00
  0.00000000E+00  0.00000000E+00  0.00000000E+00
  0.00000000E+00  0.00000000E+00  0.00000000E+00
  0.00000000E+00  0.00000000E+00  0.00000000E+00
  0.00000000E+00  0.00000000E+00  0.00000000E+00
  0.00000000E+00  0.00000000E+00  0.00000000E+00
  0.00000000E+00  0.00000000E+00  0.00000000E+00
  0.00000000E+00  0.00000000E+00  0.00000000E+00
  0.00000000E+00  0.00000000E+00  0.00000000E+00
  0.00000000E+00  0.00000000E+00  0.00000000E+00
  0.00000000E+00  0.00000000E+00  0.00000000E+00
  0.00000000E+00  0.00000000E+00  0.00000000E+00
  0.00000000E+00  0.00000000E+00  0.00000000E+00
  0.00000000E+00  0.00000000E+00  0.00000000E+00
  0.00000000E+00  0.00000000E+00  0.00000000E+00
  0.00000000E+00  0.00000000E+00  0.00000000E+00
  0.00000000E+00  0.00000000E+00  0.00000000E+00
  0.00000000E+00  0.00000000E+00  0.00000000E+00
  0.00000000E+00  0.00000000E+00  0.00000000E+00
  0.00000000E+00  0.00000000E+00  0.00000000E+00
  0.00000000E+00  0.00000000E+00  0.00000000E+00
  0.00000000E+00  0.00000000E+00  0.00000000E+00
