Sodilite                                
   1.00000000000000     
     8.9801492144254649    0.0155248231395681   -0.0155248238449667
     0.0155248238449667    8.9801492144254649   -0.0155248231395682
    -0.0155248231395682   -0.0155248238449667    8.9801492144254649
   O    Na   Al   Si   Cl   K 
    24     7     6     6     2     1
Direct
  0.1443920843280507  0.4349606893788310  0.1561962155842737
  0.8642736333232268  0.5526888647711429  0.1459976929972774
  0.8547398118996643  0.4355972253660406  0.8465570508663104
  0.1331322345549830  0.5605999670599409  0.8569449394106535
  0.1430550605893467  0.1331322345549830  0.4394000329400585
  0.1534429491336897  0.8547398118996643  0.5644027746339598
  0.8540023070027224  0.8642736333232268  0.4473111352288565
  0.8438037844157257  0.1443920843280507  0.5650393106211693
  0.4355972253660406  0.1534429491336897  0.1452601881003359
  0.5605999670599409  0.1430550605893467  0.8668677654450170
  0.4349606893788310  0.8438037844157257  0.8556079156719492
  0.5526888647711429  0.8540023070027224  0.1357263666767730
  0.9363110075393051  0.6386557322350057  0.6520190196671409
  0.0633384264117151  0.3611119829264396  0.6500455326739605
  0.9374661368628219  0.3582352077641469  0.3524476024218410
  0.0595485432795799  0.6387774724370959  0.3510177837279624
  0.6387774724370959  0.6489822162720376  0.9404514567204201
  0.3582352077641469  0.6475523975781587  0.0625338631371783
  0.3611119829264396  0.3499544673260396  0.9366615735882846
  0.6386557322350057  0.3479809803328595  0.0636889924606949
  0.6475523975781587  0.9374661368628219  0.6417647922358529
  0.6489822162720376  0.0595485432795799  0.3612225275629039
  0.3479809803328595  0.9363110075393051  0.3613442677649948
  0.3499544673260396  0.0633384264117151  0.6388880170735604
  0.1829322967026008  0.1823689150444264  0.1851762079107803
  0.8148237920892197  0.1829322967026007  0.8176310849555736
  0.1823689150444264  0.8148237920892197  0.8170677032973991
  0.6764089577678037  0.6775824068722656  0.6792695061965796
  0.3192502876017579  0.3192502876017579  0.6807497123982426
  0.6775824068722656  0.3207304938034203  0.3235910422321961
  0.3207304938034203  0.6764089577678037  0.3224175931277348
  0.2484568180660974  0.4966830914759684  0.0025680871962379
  0.7480318046813714  0.4965159903711806 -0.0003122533225100
 -0.0025680871962379  0.2484568180660974  0.5033169085240317
  0.0003122533225100  0.7480318046813714  0.5034840096288191
  0.4965159903711806  0.0003122533225100  0.2519681953186286
  0.4966830914759684 -0.0025680871962379  0.7515431819339025
  0.2483454850084973 -0.0029016226935623  0.5019613411359530
  0.7481165134773694  0.0009243282685819  0.5039236508958286
  0.4980386588640478  0.2483454850084973  0.0029016226935623
  0.4960763491041711  0.7481165134773694 -0.0009243282685819
  0.0009243282685819  0.4960763491041711  0.2518834865226309
 -0.0029016226935623  0.4980386588640478  0.7516545149915025
  0.0401324125296209  0.0401324125296209 -0.0401324125296209
  0.4978719479381017  0.4978719479381017  0.5021280520618979
  0.8492637241122176  0.8492637241122176  0.1507362758877822
 
  0.00000000E+00  0.00000000E+00  0.00000000E+00
  0.00000000E+00  0.00000000E+00  0.00000000E+00
  0.00000000E+00  0.00000000E+00  0.00000000E+00
  0.00000000E+00  0.00000000E+00  0.00000000E+00
  0.00000000E+00  0.00000000E+00  0.00000000E+00
  0.00000000E+00  0.00000000E+00  0.00000000E+00
  0.00000000E+00  0.00000000E+00  0.00000000E+00
  0.00000000E+00  0.00000000E+00  0.00000000E+00
  0.00000000E+00  0.00000000E+00  0.00000000E+00
  0.00000000E+00  0.00000000E+00  0.00000000E+00
  0.00000000E+00  0.00000000E+00  0.00000000E+00
  0.00000000E+00  0.00000000E+00  0.00000000E+00
  0.00000000E+00  0.00000000E+00  0.00000000E+00
  0.00000000E+00  0.00000000E+00  0.00000000E+00
  0.00000000E+00  0.00000000E+00  0.00000000E+00
  0.00000000E+00  0.00000000E+00  0.00000000E+00
  0.00000000E+00  0.00000000E+00  0.00000000E+00
  0.00000000E+00  0.00000000E+00  0.00000000E+00
  0.00000000E+00  0.00000000E+00  0.00000000E+00
  0.00000000E+00  0.00000000E+00  0.00000000E+00
  0.00000000E+00  0.00000000E+00  0.00000000E+00
  0.00000000E+00  0.00000000E+00  0.00000000E+00
  0.00000000E+00  0.00000000E+00  0.00000000E+00
  0.00000000E+00  0.00000000E+00  0.00000000E+00
  0.00000000E+00  0.00000000E+00  0.00000000E+00
  0.00000000E+00  0.00000000E+00  0.00000000E+00
  0.00000000E+00  0.00000000E+00  0.00000000E+00
  0.00000000E+00  0.00000000E+00  0.00000000E+00
  0.00000000E+00  0.00000000E+00  0.00000000E+00
  0.00000000E+00  0.00000000E+00  0.00000000E+00
  0.00000000E+00  0.00000000E+00  0.00000000E+00
  0.00000000E+00  0.00000000E+00  0.00000000E+00
  0.00000000E+00  0.00000000E+00  0.00000000E+00
  0.00000000E+00  0.00000000E+00  0.00000000E+00
  0.00000000E+00  0.00000000E+00  0.00000000E+00
  0.00000000E+00  0.00000000E+00  0.00000000E+00
  0.00000000E+00  0.00000000E+00  0.00000000E+00
  0.00000000E+00  0.00000000E+00  0.00000000E+00
  0.00000000E+00  0.00000000E+00  0.00000000E+00
  0.00000000E+00  0.00000000E+00  0.00000000E+00
  0.00000000E+00  0.00000000E+00  0.00000000E+00
  0.00000000E+00  0.00000000E+00  0.00000000E+00
  0.00000000E+00  0.00000000E+00  0.00000000E+00
  0.00000000E+00  0.00000000E+00  0.00000000E+00
  0.00000000E+00  0.00000000E+00  0.00000000E+00
  0.00000000E+00  0.00000000E+00  0.00000000E+00
