Sodilite                                
   1.00000000000000     
     9.0360692590193477   -0.0277906250192553   -0.0277906250192554
    -0.0277906250192554    9.0360692590193477    0.0277906250192554
    -0.0277906250192553    0.0277906250192553    9.0360692590193477
   O    Na   Al   Si   Cl   K 
    24     6     6     6     2     2
Direct
  0.1485239884543481  0.4391009082774520  0.1519854153203891
  0.8665822499186958  0.5541001832529300  0.1435732000876293
  0.8560047816213174  0.4372728374603578  0.8408920206716846
  0.1362119352243968  0.5498230319196934  0.8528189857254818
  0.1591079793283154  0.1439952183786828  0.4372728374603578
  0.1471810142745182  0.8637880647756035  0.5498230319196934
  0.8480145846796111  0.8514760115456519  0.4391009082774520
  0.8564267999123706  0.1334177500813039  0.5541001832529300
  0.4458998167470698  0.1435732000876293  0.1334177500813039
  0.5608990917225479  0.1519854153203891  0.8514760115456519
  0.4501769680803067  0.8528189857254818  0.8637880647756035
  0.5627271625396422  0.8408920206716846  0.1439952183786828
  0.9458998167470700  0.6334177500813042  0.6435732000876294
  0.0608990917225480  0.3514760115456519  0.6519854153203889
  0.9501769680803066  0.3637880647756031  0.3528189857254820
  0.0627271625396423  0.6439952183786826  0.3408920206716847
  0.6485239884543481  0.6519854153203889  0.9391009082774521
  0.3665822499186961  0.6435732000876294  0.0541001832529301
  0.3560047816213176  0.3408920206716847  0.9372728374603578
  0.6362119352243965  0.3528189857254820  0.0498230319196933
  0.6591079793283154  0.9372728374603578  0.6439952183786826
  0.6471810142745182  0.0498230319196933  0.3637880647756031
  0.3480145846796107  0.9391009082774521  0.3514760115456519
  0.3564267999123710  0.0541001832529301  0.6334177500813042
  0.1862910185002713  0.1842061807666560  0.1824023075403193
  0.8175976924596806  0.8137089814997289  0.1842061807666560
  0.8157938192333438  0.1824023075403193  0.8137089814997289
  0.6862910185002711  0.6824023075403194  0.6842061807666562
  0.3157938192333437  0.3137089814997289  0.6824023075403194
  0.3175976924596808  0.6842061807666562  0.3137089814997289
  0.2536100742279864  0.4941118042093714 -0.0028336823236982
  0.7536100742279861  0.4971663176763017 -0.0058881957906286
  0.0058881957906286  0.2463899257720134  0.4971663176763017
  0.0028336823236982  0.7463899257720139  0.4941118042093714
  0.5028336823236979 -0.0058881957906286  0.2463899257720134
  0.5058881957906287 -0.0028336823236982  0.7463899257720139
  0.2534247066392877 -0.0010762910726680  0.4931660993730145
  0.7534247066392876 -0.0068339006269854  0.4989237089273320
  0.5010762910726677  0.2465752933607123 -0.0068339006269853
  0.5068339006269851  0.7465752933607124 -0.0010762910726680
  0.0068339006269854  0.4989237089273320  0.2465752933607123
  0.0010762910726680  0.4931660993730145  0.7465752933607124
 -0.0359982794769711  0.0359982794769711  0.0359982794769711
  0.4640017205230289  0.5359982794769712  0.5359982794769714
  0.1548925260992806  0.8451074739007199  0.8451074739007199
  0.6548925260992801  0.3451074739007192  0.3451074739007192
 
  0.00000000E+00  0.00000000E+00  0.00000000E+00
  0.00000000E+00  0.00000000E+00  0.00000000E+00
  0.00000000E+00  0.00000000E+00  0.00000000E+00
  0.00000000E+00  0.00000000E+00  0.00000000E+00
  0.00000000E+00  0.00000000E+00  0.00000000E+00
  0.00000000E+00  0.00000000E+00  0.00000000E+00
  0.00000000E+00  0.00000000E+00  0.00000000E+00
  0.00000000E+00  0.00000000E+00  0.00000000E+00
  0.00000000E+00  0.00000000E+00  0.00000000E+00
  0.00000000E+00  0.00000000E+00  0.00000000E+00
  0.00000000E+00  0.00000000E+00  0.00000000E+00
  0.00000000E+00  0.00000000E+00  0.00000000E+00
  0.00000000E+00  0.00000000E+00  0.00000000E+00
  0.00000000E+00  0.00000000E+00  0.00000000E+00
  0.00000000E+00  0.00000000E+00  0.00000000E+00
  0.00000000E+00  0.00000000E+00  0.00000000E+00
  0.00000000E+00  0.00000000E+00  0.00000000E+00
  0.00000000E+00  0.00000000E+00  0.00000000E+00
  0.00000000E+00  0.00000000E+00  0.00000000E+00
  0.00000000E+00  0.00000000E+00  0.00000000E+00
  0.00000000E+00  0.00000000E+00  0.00000000E+00
  0.00000000E+00  0.00000000E+00  0.00000000E+00
  0.00000000E+00  0.00000000E+00  0.00000000E+00
  0.00000000E+00  0.00000000E+00  0.00000000E+00
  0.00000000E+00  0.00000000E+00  0.00000000E+00
  0.00000000E+00  0.00000000E+00  0.00000000E+00
  0.00000000E+00  0.00000000E+00  0.00000000E+00
  0.00000000E+00  0.00000000E+00  0.00000000E+00
  0.00000000E+00  0.00000000E+00  0.00000000E+00
  0.00000000E+00  0.00000000E+00  0.00000000E+00
  0.00000000E+00  0.00000000E+00  0.00000000E+00
  0.00000000E+00  0.00000000E+00  0.00000000E+00
  0.00000000E+00  0.00000000E+00  0.00000000E+00
  0.00000000E+00  0.00000000E+00  0.00000000E+00
  0.00000000E+00  0.00000000E+00  0.00000000E+00
  0.00000000E+00  0.00000000E+00  0.00000000E+00
  0.00000000E+00  0.00000000E+00  0.00000000E+00
  0.00000000E+00  0.00000000E+00  0.00000000E+00
  0.00000000E+00  0.00000000E+00  0.00000000E+00
  0.00000000E+00  0.00000000E+00  0.00000000E+00
  0.00000000E+00  0.00000000E+00  0.00000000E+00
  0.00000000E+00  0.00000000E+00  0.00000000E+00
  0.00000000E+00  0.00000000E+00  0.00000000E+00
  0.00000000E+00  0.00000000E+00  0.00000000E+00
  0.00000000E+00  0.00000000E+00  0.00000000E+00
  0.00000000E+00  0.00000000E+00  0.00000000E+00
