Sodilite                                
   1.00000000000000     
     9.2281411432428531    0.0119505125369097    0.0327004066960077
     0.0119465860192623    9.2266255911735779   -0.0134239074980348
     0.0327157580500673   -0.0134299229901942    9.2276112272656512
   O    Na   Al   Si   Cl   K 
    24     3     6     6     2     5
Direct
  0.1321846081235865  0.4682875007451940  0.1463777310423633
  0.8471763597843900  0.5502952604109123  0.1619415087742266
  0.8644957256650410  0.4693635255929900  0.8580376189338120
  0.1519741737900051  0.5443414208049362  0.8395863779253476
  0.1524904567510576  0.1486955399197115  0.4666232221914265
  0.1504457257741388  0.8603091638888453  0.5407376929059420
  0.8425681159130528  0.8579635038520477  0.4549366608121254
  0.8500655809612450  0.1429188696128434  0.5375407670581286
  0.4617775931602051  0.1532489542683845  0.1417344760668628
  0.5352806269683089  0.1598058744699680  0.8563204284013268
  0.4601858519442985  0.8520539599736171  0.8587852046214168
  0.5431004368520809  0.8493615865026166  0.1463036206142734
  0.9617618391393363  0.6546089627038206  0.6598653760896634
  0.0317101265850052  0.3672888031008499  0.6485118092462835
  0.9547816516154284  0.3529873320196698  0.3397095551427298
  0.0351255686762929  0.6381304855768464  0.3575205763534776
  0.6342340819522903  0.6491166892881871  0.9634523314784503
  0.3493889008758017  0.6641782955865864  0.0394205858883133
  0.3620178996599488  0.3587763812235373  0.9701033099424792
  0.6506706683718223  0.3443364143805698  0.0438407985227440
  0.6472361847954655  0.9681563954911188  0.6380205171734701
  0.6567240509754476  0.0480998989794845  0.3515437564864007
  0.3505236187081613  0.9676426728481949  0.3626024820987940
  0.3414628993710069  0.0374495475240789  0.6503426878046555
  0.8010248033074502  0.8026319802698378  0.1974871036027544
  0.1911835692793436  0.8066013683808787  0.8086034446308769
  0.7026130136703104  0.2977855296714396  0.2961868074946420
  0.2478339075795212  0.5088356282459097  0.0005929596716310
  0.7488556190451177  0.5045031126004719  0.0059990813059237
 -0.0028443725022985  0.2555522648446000  0.4985602989625203
 -0.0035295919812316  0.7550903069853133  0.5024576351749932
  0.5013318153067153  0.0045866640034369  0.2513750223382576
  0.4977785149208522  0.0052377806883516  0.7517660849407869
  0.2483412452918108  0.0042917848363479  0.5041410363198906
  0.7487601142727912  0.0046609735352229  0.4965691258655091
  0.5019498683151055  0.2551506182838092  0.0031736497164623
  0.4971216672342198  0.7546405327943975  0.0025997247634867
 -0.0072521774530766  0.5035138364159782  0.2513856320751010
  0.0012366924397004  0.5090221705147778  0.7519539480922739
 -0.0036398643751723 -0.0641633251741552  0.0034794704984764
  0.5367603019427967  0.4666962509112065  0.4631620148423720
  0.1680735124654558  0.1686935458744288  0.1689551767590461
  0.8324743864885759  0.1694744992497736  0.8313281741509023
  0.6714600495602877  0.6748659014219562  0.6737349759105959
  0.3280126585148184  0.3306395335611303  0.6733036314251184
  0.3250715202634880  0.6742720033198768  0.3293259058836665
 
  0.00000000E+00  0.00000000E+00  0.00000000E+00
  0.00000000E+00  0.00000000E+00  0.00000000E+00
  0.00000000E+00  0.00000000E+00  0.00000000E+00
  0.00000000E+00  0.00000000E+00  0.00000000E+00
  0.00000000E+00  0.00000000E+00  0.00000000E+00
  0.00000000E+00  0.00000000E+00  0.00000000E+00
  0.00000000E+00  0.00000000E+00  0.00000000E+00
  0.00000000E+00  0.00000000E+00  0.00000000E+00
  0.00000000E+00  0.00000000E+00  0.00000000E+00
  0.00000000E+00  0.00000000E+00  0.00000000E+00
  0.00000000E+00  0.00000000E+00  0.00000000E+00
  0.00000000E+00  0.00000000E+00  0.00000000E+00
  0.00000000E+00  0.00000000E+00  0.00000000E+00
  0.00000000E+00  0.00000000E+00  0.00000000E+00
  0.00000000E+00  0.00000000E+00  0.00000000E+00
  0.00000000E+00  0.00000000E+00  0.00000000E+00
  0.00000000E+00  0.00000000E+00  0.00000000E+00
  0.00000000E+00  0.00000000E+00  0.00000000E+00
  0.00000000E+00  0.00000000E+00  0.00000000E+00
  0.00000000E+00  0.00000000E+00  0.00000000E+00
  0.00000000E+00  0.00000000E+00  0.00000000E+00
  0.00000000E+00  0.00000000E+00  0.00000000E+00
  0.00000000E+00  0.00000000E+00  0.00000000E+00
  0.00000000E+00  0.00000000E+00  0.00000000E+00
  0.00000000E+00  0.00000000E+00  0.00000000E+00
  0.00000000E+00  0.00000000E+00  0.00000000E+00
  0.00000000E+00  0.00000000E+00  0.00000000E+00
  0.00000000E+00  0.00000000E+00  0.00000000E+00
  0.00000000E+00  0.00000000E+00  0.00000000E+00
  0.00000000E+00  0.00000000E+00  0.00000000E+00
  0.00000000E+00  0.00000000E+00  0.00000000E+00
  0.00000000E+00  0.00000000E+00  0.00000000E+00
  0.00000000E+00  0.00000000E+00  0.00000000E+00
  0.00000000E+00  0.00000000E+00  0.00000000E+00
  0.00000000E+00  0.00000000E+00  0.00000000E+00
  0.00000000E+00  0.00000000E+00  0.00000000E+00
  0.00000000E+00  0.00000000E+00  0.00000000E+00
  0.00000000E+00  0.00000000E+00  0.00000000E+00
  0.00000000E+00  0.00000000E+00  0.00000000E+00
  0.00000000E+00  0.00000000E+00  0.00000000E+00
  0.00000000E+00  0.00000000E+00  0.00000000E+00
  0.00000000E+00  0.00000000E+00  0.00000000E+00
  0.00000000E+00  0.00000000E+00  0.00000000E+00
  0.00000000E+00  0.00000000E+00  0.00000000E+00
  0.00000000E+00  0.00000000E+00  0.00000000E+00
  0.00000000E+00  0.00000000E+00  0.00000000E+00
