Sodilite                                
   1.00000000000000     
     9.1741816602385065    0.0238747177911087    0.0026163033359081
     0.0238862102475404    9.1823583122506172   -0.0256614145225153
     0.0026133100141086   -0.0256462125937335    9.1729639266220531
   O    Na   Al   Si   Cl   K 
    24     4     6     6     2     4
Direct
  0.1317269199193125  0.4611048068400241  0.1466516539382531
  0.8466391576899465  0.5429078713211043  0.1635098522075649
  0.8637311409126328  0.4624823779333474  0.8605983253048686
  0.1490003861685063  0.5484253621695085  0.8411640856671512
  0.1432256332222808  0.1347917053379814  0.4654331474901537
  0.1562501681766480  0.8485842340264372  0.5507357487879818
  0.8530583344432537  0.8646653054546780  0.4614536702220342
  0.8371762136345656  0.1496031709601965  0.5432499708175202
  0.4581236756040086  0.1584766629232126  0.1538116444489753
  0.5348156334975295  0.1459673441353560  0.8661277062929347
  0.4476744954915600  0.8395999805557010  0.8521789775929327
  0.5387565400242466  0.8558736002459129  0.1355115576789830
  0.9465383600894709  0.6450120158105505  0.6567619991093177
  0.0371758003455233  0.3612621126661682  0.6529421378163875
  0.9542658771797402  0.3531493767822853  0.3466428871809810
  0.0452941647565075  0.6394741569839855  0.3539281173440153
  0.6367844765049008  0.6505943373324504  0.9536845677831201
  0.3536506897934784  0.6540390245285069  0.0526880038749956
  0.3580177336671704  0.3519566603324729  0.9638375621504379
  0.6451939497341118  0.3441009374736183  0.0466693468323688
  0.6553430622782135  0.9521311398252226  0.6514627929595526
  0.6446459861757063  0.0415891706094405  0.3645239163890791
  0.3374980549680476  0.9502271596150256  0.3529212312101350
  0.3536454922690302  0.0403259212872520  0.6364027356852603
  0.2037384067406739  0.7945415376323763  0.7951363630016994
  0.6909338141541178  0.6938026821601317  0.6905586654234288
  0.6869824830715072  0.3182712490290341  0.3131431510396485
  0.3082281212240602  0.6922997304083808  0.3087370748430216
  0.2468501407684795  0.5038692408178660  0.0013287121083653
  0.7460860407478517  0.5015651313001446  0.0060934094881798
 -0.0059915936532542  0.2499611460356202  0.5033684125517238
 -0.0013878260251789  0.7492101742492032  0.5055994820402714
  0.4941999788399645 -0.0000059861816506  0.2536978881075728
  0.4970846556640722 -0.0043602778140461  0.7531911621072394
  0.2469949327245861 -0.0058657936818405  0.5021951156730123
  0.7466478733928653  0.0011113923127259  0.5055313085584420
  0.4980029719140102  0.2502473169043768  0.0071488634695403
  0.4940065557191066  0.7498513143397225 -0.0002937382314073
 -0.0056044879220794  0.5000817418812930  0.2535004555234531
 -0.0013945019059867  0.5043164781305476  0.7532815445928165
  0.0375711834823368 -0.0416114713118075 -0.0377545733757555
  0.5280750313812741  0.5359815063350285  0.4715825909605190
  0.1666808220173493  0.1700657755912387  0.1713061375430468
  0.8270864121680948  0.8318419957888761  0.1726685126207433
  0.8290485777336398  0.1712155656701786  0.8343158302789033
  0.3379284612161148  0.3372651152521614  0.6627719928905310
 
  0.00000000E+00  0.00000000E+00  0.00000000E+00
  0.00000000E+00  0.00000000E+00  0.00000000E+00
  0.00000000E+00  0.00000000E+00  0.00000000E+00
  0.00000000E+00  0.00000000E+00  0.00000000E+00
  0.00000000E+00  0.00000000E+00  0.00000000E+00
  0.00000000E+00  0.00000000E+00  0.00000000E+00
  0.00000000E+00  0.00000000E+00  0.00000000E+00
  0.00000000E+00  0.00000000E+00  0.00000000E+00
  0.00000000E+00  0.00000000E+00  0.00000000E+00
  0.00000000E+00  0.00000000E+00  0.00000000E+00
  0.00000000E+00  0.00000000E+00  0.00000000E+00
  0.00000000E+00  0.00000000E+00  0.00000000E+00
  0.00000000E+00  0.00000000E+00  0.00000000E+00
  0.00000000E+00  0.00000000E+00  0.00000000E+00
  0.00000000E+00  0.00000000E+00  0.00000000E+00
  0.00000000E+00  0.00000000E+00  0.00000000E+00
  0.00000000E+00  0.00000000E+00  0.00000000E+00
  0.00000000E+00  0.00000000E+00  0.00000000E+00
  0.00000000E+00  0.00000000E+00  0.00000000E+00
  0.00000000E+00  0.00000000E+00  0.00000000E+00
  0.00000000E+00  0.00000000E+00  0.00000000E+00
  0.00000000E+00  0.00000000E+00  0.00000000E+00
  0.00000000E+00  0.00000000E+00  0.00000000E+00
  0.00000000E+00  0.00000000E+00  0.00000000E+00
  0.00000000E+00  0.00000000E+00  0.00000000E+00
  0.00000000E+00  0.00000000E+00  0.00000000E+00
  0.00000000E+00  0.00000000E+00  0.00000000E+00
  0.00000000E+00  0.00000000E+00  0.00000000E+00
  0.00000000E+00  0.00000000E+00  0.00000000E+00
  0.00000000E+00  0.00000000E+00  0.00000000E+00
  0.00000000E+00  0.00000000E+00  0.00000000E+00
  0.00000000E+00  0.00000000E+00  0.00000000E+00
  0.00000000E+00  0.00000000E+00  0.00000000E+00
  0.00000000E+00  0.00000000E+00  0.00000000E+00
  0.00000000E+00  0.00000000E+00  0.00000000E+00
  0.00000000E+00  0.00000000E+00  0.00000000E+00
  0.00000000E+00  0.00000000E+00  0.00000000E+00
  0.00000000E+00  0.00000000E+00  0.00000000E+00
  0.00000000E+00  0.00000000E+00  0.00000000E+00
  0.00000000E+00  0.00000000E+00  0.00000000E+00
  0.00000000E+00  0.00000000E+00  0.00000000E+00
  0.00000000E+00  0.00000000E+00  0.00000000E+00
  0.00000000E+00  0.00000000E+00  0.00000000E+00
  0.00000000E+00  0.00000000E+00  0.00000000E+00
  0.00000000E+00  0.00000000E+00  0.00000000E+00
  0.00000000E+00  0.00000000E+00  0.00000000E+00
