Sodilite                                
   1.00000000000000     
     9.1511818145302968    0.0257538529791133   -0.0257538529791133
     0.0257569322639010    9.1589998732860831    0.0042362471431638
    -0.0257569322639010    0.0042362471431638    9.1589998732860831
   O    Na   Al   Si   Cl   K 
    24     4     6     6     2     4
Direct
  0.1414965126848117  0.4580658419342716  0.1525419490871317
  0.8553101931909340  0.5403195608959576  0.1568046539851936
  0.8593017687856461  0.4485177697479010  0.8525810415066603
  0.1428320850105800  0.5492219484484780  0.8479837133691299
  0.1425865064081508  0.1286416830042420  0.4647847275185588
  0.1616378824120020  0.8437429934912276  0.5546419641037634
  0.8609267968907941  0.8680542869343173  0.4611567800673240
  0.8351155299204154  0.1513530968171738  0.5519834626649535
  0.4621071361680200  0.1486402406795113  0.1457139219383921
  0.5469401750613675  0.1490840785685624  0.8577867053325094
  0.4456497642653796  0.8455424864829409  0.8606535788802806
  0.5441440491911519  0.8457820619894221  0.1425024123795234
  0.9456497642653793  0.6393464211197194  0.6544575135170591
  0.0441440491911518  0.3574975876204766  0.6542179380105779
  0.9621071361680198  0.3542860780616080  0.3513597593204885
  0.0469401750613677  0.6422132946674906  0.3509159214314372
  0.6428320850105802  0.6520162866308701  0.9507780515515220
  0.3593017687856462  0.6474189584933397  0.0514822302520992
  0.3553101931909344  0.3431953460148063  0.9596804391040424
  0.6414965126848116  0.3474580509128684  0.0419341580657283
  0.6616378824120023  0.9453580358962366  0.6562570065087724
  0.6425865064081505  0.0352152724814414  0.3713583169957577
  0.3351155299204153  0.9480165373350465  0.3486469031828262
  0.3609267968907943  0.0388432199326759  0.6319457130656827
  0.8063173533096993  0.1916437208081579  0.8082995740082297
  0.1963107273125383  0.8022796002907230  0.8042624451694578
  0.6963107273125381  0.6957375548305422  0.6977203997092770
  0.3063173533096986  0.6917004259917703  0.3083562791918425
  0.2497573313217167  0.4983780305595210  0.0014885804959957
  0.7497573313217168  0.4985114195040041  0.0016219694404791
 -0.0032878549238003  0.2457243486463421  0.5065810438943161
  0.0026036794319658  0.7471636262500416  0.5063916004782776
  0.4967121450761995 -0.0065810438943161  0.2542756513536580
  0.5026036794319659 -0.0063916004782781  0.7528363737499584
  0.2498692202811114 -0.0102722051228957  0.5014733366393572
  0.7498692202811115 -0.0014733366393570  0.5102722051228955
  0.5008096914987255  0.2462237489834759  0.0014823383904951
  0.4985104936259088  0.7471753795218843  0.0014642558818737
  0.0008096914987254  0.4985176616095047  0.2537762510165241
 -0.0014895063740913  0.4985357441181262  0.7528246204781157
  0.0011294468350095 -0.0048106443314557 -0.0724102222401646
  0.5011294468350100  0.5724102222401645  0.5048106443314556
  0.1633619605470004  0.1621797327643722  0.1638561587043535
  0.8365695507708719  0.8359847681529217  0.1666121332614791
  0.3365695507708724  0.3333878667385208  0.6640152318470783
  0.6633619605470004  0.3361438412956465  0.3378202672356277
 
  0.00000000E+00  0.00000000E+00  0.00000000E+00
  0.00000000E+00  0.00000000E+00  0.00000000E+00
  0.00000000E+00  0.00000000E+00  0.00000000E+00
  0.00000000E+00  0.00000000E+00  0.00000000E+00
  0.00000000E+00  0.00000000E+00  0.00000000E+00
  0.00000000E+00  0.00000000E+00  0.00000000E+00
  0.00000000E+00  0.00000000E+00  0.00000000E+00
  0.00000000E+00  0.00000000E+00  0.00000000E+00
  0.00000000E+00  0.00000000E+00  0.00000000E+00
  0.00000000E+00  0.00000000E+00  0.00000000E+00
  0.00000000E+00  0.00000000E+00  0.00000000E+00
  0.00000000E+00  0.00000000E+00  0.00000000E+00
  0.00000000E+00  0.00000000E+00  0.00000000E+00
  0.00000000E+00  0.00000000E+00  0.00000000E+00
  0.00000000E+00  0.00000000E+00  0.00000000E+00
  0.00000000E+00  0.00000000E+00  0.00000000E+00
  0.00000000E+00  0.00000000E+00  0.00000000E+00
  0.00000000E+00  0.00000000E+00  0.00000000E+00
  0.00000000E+00  0.00000000E+00  0.00000000E+00
  0.00000000E+00  0.00000000E+00  0.00000000E+00
  0.00000000E+00  0.00000000E+00  0.00000000E+00
  0.00000000E+00  0.00000000E+00  0.00000000E+00
  0.00000000E+00  0.00000000E+00  0.00000000E+00
  0.00000000E+00  0.00000000E+00  0.00000000E+00
  0.00000000E+00  0.00000000E+00  0.00000000E+00
  0.00000000E+00  0.00000000E+00  0.00000000E+00
  0.00000000E+00  0.00000000E+00  0.00000000E+00
  0.00000000E+00  0.00000000E+00  0.00000000E+00
  0.00000000E+00  0.00000000E+00  0.00000000E+00
  0.00000000E+00  0.00000000E+00  0.00000000E+00
  0.00000000E+00  0.00000000E+00  0.00000000E+00
  0.00000000E+00  0.00000000E+00  0.00000000E+00
  0.00000000E+00  0.00000000E+00  0.00000000E+00
  0.00000000E+00  0.00000000E+00  0.00000000E+00
  0.00000000E+00  0.00000000E+00  0.00000000E+00
  0.00000000E+00  0.00000000E+00  0.00000000E+00
  0.00000000E+00  0.00000000E+00  0.00000000E+00
  0.00000000E+00  0.00000000E+00  0.00000000E+00
  0.00000000E+00  0.00000000E+00  0.00000000E+00
  0.00000000E+00  0.00000000E+00  0.00000000E+00
  0.00000000E+00  0.00000000E+00  0.00000000E+00
  0.00000000E+00  0.00000000E+00  0.00000000E+00
  0.00000000E+00  0.00000000E+00  0.00000000E+00
  0.00000000E+00  0.00000000E+00  0.00000000E+00
  0.00000000E+00  0.00000000E+00  0.00000000E+00
  0.00000000E+00  0.00000000E+00  0.00000000E+00
