Sodilite                                
   1.00000000000000     
     9.0537770009724063    0.0000000000000000    0.0000000000000000
     0.0000000000000000    9.0451258938573709    0.0321606833343073
     0.0000000000000000    0.0321696894280764    9.0480748437301148
   O    Na   Al   Si   Cl   K 
    24     6     6     6     2     2
Direct
  0.1418992758059388  0.4410024773256250  0.1488441477654383
  0.8608892498225009  0.5552904074414478  0.1526044176493948
  0.8608892498225009  0.4447095925585531  0.8473955823506047
  0.1418992758059388  0.5589975226743747  0.8511558522345616
  0.1530424111585506  0.1389878908511401  0.4396344220387305
  0.1530424111585506  0.8610121091488597  0.5603655779612694
  0.8523402202004501  0.8576953401087365  0.4457351303198886
  0.8523402202004501  0.1423046598912635  0.5542648696801117
  0.4438155023442354  0.1517317977271558  0.1409457950435139
  0.5586001749120263  0.1497152464614806  0.8594926424204263
  0.4438155023442354  0.8482682022728444  0.8590542049564863
  0.5586001749120263  0.8502847535385197  0.1405073575795739
  0.9553002700823173  0.6282686291190486  0.6382836568614633
  0.0615596218821296  0.3463587537489954  0.6633155205606689
  0.9553002700823173  0.3717313708809517  0.3617163431385370
  0.0615596218821296  0.6536412462510047  0.3366844794393316
  0.6425875586571490  0.6505546483702807  0.9495381926190886
  0.3610131155953086  0.6503893390104302  0.0585484128158048
  0.3610131155953086  0.3496106609895702  0.9414515871841950
  0.6425875586571490  0.3494453516297198  0.0504618073809116
  0.6535706384038115  0.9493664135549296  0.6416605629749917
  0.6535706384038115  0.0506335864450710  0.3583394370250084
  0.3523603479392787  0.9417125873574528  0.3601925901718459
  0.3523603479392787  0.0582874126425473  0.6398074098281539
  0.1837134497894355  0.1830999455255377  0.1820627467551729
  0.8227796433243018  0.8203321716132941  0.1809266112619032
  0.8227796433243018  0.1796678283867061  0.8190733887380967
  0.1837134497894355  0.8169000544744620  0.8179372532448268
  0.3100949223240634  0.3057582805507452  0.6939843433123568
  0.3100949223240634  0.6942417194492552  0.3060156566876432
  0.2526177155172433  0.5000000000000000 -0.0000000000000000
  0.7541157133976846  0.5000000000000000 -0.0000000000000000
  0.0071699149690090  0.2499458233722489  0.5034771727173919
  0.0071699149690090  0.7500541766277508  0.4965228272826080
  0.5021707599618730 -0.0001008295293040  0.2496583586446900
  0.5021707599618730  0.0001008295293040  0.7503416413553100
  0.2530557407645027  0.0000000000000000  0.5000000000000000
  0.7540104628225799  0.0000000000000000  0.5000000000000000
  0.5018166515100567  0.2499227532412540 -0.0013385125743834
  0.5018166515100567  0.7500772467587462  0.0013385125743834
  0.0060719059708928  0.5045880922175511  0.2499886623538216
  0.0060719059708928  0.4954119077824488  0.7500113376461789
  0.0050158329938456  0.0000000000000000 -0.0000000000000000
  0.4181372477433707  0.5000000000000000  0.5000000000000000
  0.6607280087270569  0.6564022189565993  0.6569229222229646
  0.6607280087270569  0.3435977810434008  0.3430770777770354
 
  0.00000000E+00  0.00000000E+00  0.00000000E+00
  0.00000000E+00  0.00000000E+00  0.00000000E+00
  0.00000000E+00  0.00000000E+00  0.00000000E+00
  0.00000000E+00  0.00000000E+00  0.00000000E+00
  0.00000000E+00  0.00000000E+00  0.00000000E+00
  0.00000000E+00  0.00000000E+00  0.00000000E+00
  0.00000000E+00  0.00000000E+00  0.00000000E+00
  0.00000000E+00  0.00000000E+00  0.00000000E+00
  0.00000000E+00  0.00000000E+00  0.00000000E+00
  0.00000000E+00  0.00000000E+00  0.00000000E+00
  0.00000000E+00  0.00000000E+00  0.00000000E+00
  0.00000000E+00  0.00000000E+00  0.00000000E+00
  0.00000000E+00  0.00000000E+00  0.00000000E+00
  0.00000000E+00  0.00000000E+00  0.00000000E+00
  0.00000000E+00  0.00000000E+00  0.00000000E+00
  0.00000000E+00  0.00000000E+00  0.00000000E+00
  0.00000000E+00  0.00000000E+00  0.00000000E+00
  0.00000000E+00  0.00000000E+00  0.00000000E+00
  0.00000000E+00  0.00000000E+00  0.00000000E+00
  0.00000000E+00  0.00000000E+00  0.00000000E+00
  0.00000000E+00  0.00000000E+00  0.00000000E+00
  0.00000000E+00  0.00000000E+00  0.00000000E+00
  0.00000000E+00  0.00000000E+00  0.00000000E+00
  0.00000000E+00  0.00000000E+00  0.00000000E+00
  0.00000000E+00  0.00000000E+00  0.00000000E+00
  0.00000000E+00  0.00000000E+00  0.00000000E+00
  0.00000000E+00  0.00000000E+00  0.00000000E+00
  0.00000000E+00  0.00000000E+00  0.00000000E+00
  0.00000000E+00  0.00000000E+00  0.00000000E+00
  0.00000000E+00  0.00000000E+00  0.00000000E+00
  0.00000000E+00  0.00000000E+00  0.00000000E+00
  0.00000000E+00  0.00000000E+00  0.00000000E+00
  0.00000000E+00  0.00000000E+00  0.00000000E+00
  0.00000000E+00  0.00000000E+00  0.00000000E+00
  0.00000000E+00  0.00000000E+00  0.00000000E+00
  0.00000000E+00  0.00000000E+00  0.00000000E+00
  0.00000000E+00  0.00000000E+00  0.00000000E+00
  0.00000000E+00  0.00000000E+00  0.00000000E+00
  0.00000000E+00  0.00000000E+00  0.00000000E+00
  0.00000000E+00  0.00000000E+00  0.00000000E+00
  0.00000000E+00  0.00000000E+00  0.00000000E+00
  0.00000000E+00  0.00000000E+00  0.00000000E+00
  0.00000000E+00  0.00000000E+00  0.00000000E+00
  0.00000000E+00  0.00000000E+00  0.00000000E+00
  0.00000000E+00  0.00000000E+00  0.00000000E+00
  0.00000000E+00  0.00000000E+00  0.00000000E+00
