Sodilite                                
   1.00000000000000     
     9.1726378805954880    0.0264969199908613   -0.0033616042987349
     0.0265017494118040    9.1824120433450087    0.0249213129141708
    -0.0033641688407324    0.0249199060477760    9.1738711765467578
   O    Na   Al   Si   Cl   K 
    24     4     6     6     2     4
Direct
  0.1363239586799288  0.4595883874352379  0.1463246142234421
  0.8528556584799412  0.5497838039566295  0.1625299061580347
  0.8645016618189957  0.4584821800777482  0.8553504809449675
  0.1514667239050694  0.5479594505288935  0.8445972960547775
  0.1529053558837273  0.1387318531183421  0.4627790484635900
  0.1567957014764862  0.8549795624947075  0.5535119740137351
  0.8539309551728056  0.8605685523694261  0.4546329513718776
  0.8466015687532319  0.1468955593359181  0.5457213067595064
  0.4637466901549656  0.1480235060161042  0.1419311282689072
  0.5466479404061347  0.1559438839880008  0.8547388414348666
  0.4536619558177307  0.8494502605015309  0.8632253556564260
  0.5527538668523712  0.8459330390122464  0.1463343321247633
  0.9615044485986824  0.6351937797347101  0.6467666073000438
  0.0432524167386936  0.3502910224341466  0.6629523829876411
  0.9654150550946218  0.3653535280163061  0.3569178296085905
  0.0508147046734488  0.6515175503761585  0.3436238398579778
  0.6352985169088370  0.6439764806065958  0.9612512405113133
  0.3520512944209130  0.6605073108757782  0.0523478271813348
  0.3662259132510253  0.3541859930128782  0.9652097641318114
  0.6539148176603781  0.3413943678167725  0.0419279362413680
  0.6636298883859700  0.9570720850260936  0.6534435423807040
  0.6465107389483739  0.0388548239501567  0.3683703599088892
  0.3410772961237557  0.9515172270034219  0.3508981881364659
  0.3607117516666568  0.0375425379098928  0.6361089962153273
  0.8088203958753797  0.8076791192813852  0.1918586949183208
  0.8132199318271903  0.1817226336294051  0.8130721446492619
  0.1906628722484344  0.8061872745697972  0.8091528040970238
  0.2951990728268492  0.7054627467582781  0.2963291288179607
  0.2531463274838403  0.5044054272076118  0.0029281796519452
  0.7536428140535815  0.4999893154545570  0.0058112376682963
  0.0033747417607457  0.2500421947912909  0.5060290574467410
  0.0056255631168461  0.7507969307623150  0.5013463932438642
  0.5013012992834051 -0.0039028855440674  0.2531228378934505
  0.5061297304508521 -0.0015755132295921  0.7538774352704272
  0.2532917366380648 -0.0043488638616730  0.5013342492811927
  0.7535133562462121 -0.0000609133875889  0.5056400300694890
  0.5071890006268258  0.2497497847753705  0.0019769035715797
  0.4996337139939443  0.7501541532043813  0.0060344579286493
  0.0021892661166936  0.5059109088163321  0.2530124020588561
  0.0055492989015348  0.4988432756218542  0.7533518226037902
 -0.0285160091444895 -0.0358770678085780 -0.0281857097021327
  0.4623039214613804  0.5416018181742341  0.4624936443538994
  0.1627167808905091  0.1626872129703107  0.1620249221759868
  0.6727192562087102  0.6681328724684915  0.6729602399964004
  0.3343730658520278  0.3287514777160095  0.6709644097115898
  0.6713149834087205  0.3299013520321779  0.3333689643570462
 
  0.00000000E+00  0.00000000E+00  0.00000000E+00
  0.00000000E+00  0.00000000E+00  0.00000000E+00
  0.00000000E+00  0.00000000E+00  0.00000000E+00
  0.00000000E+00  0.00000000E+00  0.00000000E+00
  0.00000000E+00  0.00000000E+00  0.00000000E+00
  0.00000000E+00  0.00000000E+00  0.00000000E+00
  0.00000000E+00  0.00000000E+00  0.00000000E+00
  0.00000000E+00  0.00000000E+00  0.00000000E+00
  0.00000000E+00  0.00000000E+00  0.00000000E+00
  0.00000000E+00  0.00000000E+00  0.00000000E+00
  0.00000000E+00  0.00000000E+00  0.00000000E+00
  0.00000000E+00  0.00000000E+00  0.00000000E+00
  0.00000000E+00  0.00000000E+00  0.00000000E+00
  0.00000000E+00  0.00000000E+00  0.00000000E+00
  0.00000000E+00  0.00000000E+00  0.00000000E+00
  0.00000000E+00  0.00000000E+00  0.00000000E+00
  0.00000000E+00  0.00000000E+00  0.00000000E+00
  0.00000000E+00  0.00000000E+00  0.00000000E+00
  0.00000000E+00  0.00000000E+00  0.00000000E+00
  0.00000000E+00  0.00000000E+00  0.00000000E+00
  0.00000000E+00  0.00000000E+00  0.00000000E+00
  0.00000000E+00  0.00000000E+00  0.00000000E+00
  0.00000000E+00  0.00000000E+00  0.00000000E+00
  0.00000000E+00  0.00000000E+00  0.00000000E+00
  0.00000000E+00  0.00000000E+00  0.00000000E+00
  0.00000000E+00  0.00000000E+00  0.00000000E+00
  0.00000000E+00  0.00000000E+00  0.00000000E+00
  0.00000000E+00  0.00000000E+00  0.00000000E+00
  0.00000000E+00  0.00000000E+00  0.00000000E+00
  0.00000000E+00  0.00000000E+00  0.00000000E+00
  0.00000000E+00  0.00000000E+00  0.00000000E+00
  0.00000000E+00  0.00000000E+00  0.00000000E+00
  0.00000000E+00  0.00000000E+00  0.00000000E+00
  0.00000000E+00  0.00000000E+00  0.00000000E+00
  0.00000000E+00  0.00000000E+00  0.00000000E+00
  0.00000000E+00  0.00000000E+00  0.00000000E+00
  0.00000000E+00  0.00000000E+00  0.00000000E+00
  0.00000000E+00  0.00000000E+00  0.00000000E+00
  0.00000000E+00  0.00000000E+00  0.00000000E+00
  0.00000000E+00  0.00000000E+00  0.00000000E+00
  0.00000000E+00  0.00000000E+00  0.00000000E+00
  0.00000000E+00  0.00000000E+00  0.00000000E+00
  0.00000000E+00  0.00000000E+00  0.00000000E+00
  0.00000000E+00  0.00000000E+00  0.00000000E+00
  0.00000000E+00  0.00000000E+00  0.00000000E+00
  0.00000000E+00  0.00000000E+00  0.00000000E+00
