Sodilite                                
   1.00000000000000     
     9.1725634633148321   -0.0247329427231016   -0.0021812809623412
    -0.0247453728246353    9.1821885216912040   -0.0232296095230722
    -0.0021842218107006   -0.0232205129118632    9.1738201895376239
   O    Na   Al   Si   Cl   K 
    24     4     6     6     2     4
Direct
  0.1353606445069271  0.4583003616246470  0.1445561124116431
  0.8484296753096002  0.5479646798101934  0.1554286270044534
  0.8636088480651334  0.4597936294939798  0.8537349994575875
  0.1470546674337699  0.5497958608083486  0.8373873985185966
  0.1532330176949157  0.1466964878976886  0.4542256116324206
  0.1462338862119720  0.8603736253429737  0.5454155599282918
  0.8433628891964954  0.8550273506174163  0.4466079559698867
  0.8469661899023169  0.1387726348024693  0.5370789022756420
  0.4532942309255934  0.1558086542604199  0.1451329929883732
  0.5361336032780111  0.1481616692536397  0.8578942879729513
  0.4473929076479463  0.8460848394650781  0.8536856825600545
  0.5463604157269135  0.8492721773892902  0.1367708809429770
  0.9490759059139878  0.6510603020283262  0.6559327465082975
  0.0345596903971756  0.3648596602710626  0.6435117689426227
  0.9569094163134491  0.3507603672161833  0.3375609027093721
  0.0386166709813283  0.6356912762463048  0.3526854576205915
  0.6474001522599681  0.6600256980669201  0.9475698554328172
  0.3640404737022624  0.6445526149965609  0.0387125129628192
  0.3464613423724691  0.3418929084881985  0.9582457430809966
  0.6341771546538666  0.3537597433182553  0.0348773197856685
  0.6587208683849969  0.9514691127949318  0.6488580380505001
  0.6395887644178937  0.0374063274356838  0.3635023446522100
  0.3366453058455464  0.9570754296658208  0.3467636503721682
  0.3532433346609553  0.0388498062876719  0.6318346873281500
  0.1870292073904600  0.1823211800626931  0.1871830693197265
  0.8096509776984052  0.8062406767807256  0.1911104902189979
  0.1914602003430412  0.8077306242223161  0.8084254907242067
  0.7044858325200711  0.7051135000951273  0.7034038050801809
  0.2462397495855581  0.5002128513192080 -0.0057944300553009
  0.7467762319884822  0.5043192019388568 -0.0028279565323784
 -0.0033841691077380  0.2499929695812706  0.4941518674386181
 -0.0054537303058706  0.7507619158854484  0.4985603796338268
  0.4939779097265278 -0.0016813143162488  0.2460319063719302
  0.4986721973218561 -0.0038091462823106  0.7468202757986633
  0.2465121520172401 -0.0001304689770064  0.4944378276785867
  0.7467140344767578 -0.0043456882121725  0.4985537588144471
  0.4929467356992392  0.2497720018664207 -0.0019882692912714
  0.5001623819866828  0.7501599616988229 -0.0060206273308757
 -0.0055528127423824  0.4990120649967818  0.2466358438097753
 -0.0022209562117655  0.5057393070717424  0.7469698286209231
  0.0284481952331680 -0.0351993781469004  0.0281132647806193
  0.5376138067849637  0.5409545410008221  0.5374299125776894
  0.8371109618424660  0.1628990993221389  0.8378122491480197
  0.3285126184250202  0.3297338314972245  0.6669429002187011
  0.6659537380849475  0.3284900257601654  0.3289440279884187
  0.3274746814393757  0.6682570252528084  0.3271303458774057
 
  0.00000000E+00  0.00000000E+00  0.00000000E+00
  0.00000000E+00  0.00000000E+00  0.00000000E+00
  0.00000000E+00  0.00000000E+00  0.00000000E+00
  0.00000000E+00  0.00000000E+00  0.00000000E+00
  0.00000000E+00  0.00000000E+00  0.00000000E+00
  0.00000000E+00  0.00000000E+00  0.00000000E+00
  0.00000000E+00  0.00000000E+00  0.00000000E+00
  0.00000000E+00  0.00000000E+00  0.00000000E+00
  0.00000000E+00  0.00000000E+00  0.00000000E+00
  0.00000000E+00  0.00000000E+00  0.00000000E+00
  0.00000000E+00  0.00000000E+00  0.00000000E+00
  0.00000000E+00  0.00000000E+00  0.00000000E+00
  0.00000000E+00  0.00000000E+00  0.00000000E+00
  0.00000000E+00  0.00000000E+00  0.00000000E+00
  0.00000000E+00  0.00000000E+00  0.00000000E+00
  0.00000000E+00  0.00000000E+00  0.00000000E+00
  0.00000000E+00  0.00000000E+00  0.00000000E+00
  0.00000000E+00  0.00000000E+00  0.00000000E+00
  0.00000000E+00  0.00000000E+00  0.00000000E+00
  0.00000000E+00  0.00000000E+00  0.00000000E+00
  0.00000000E+00  0.00000000E+00  0.00000000E+00
  0.00000000E+00  0.00000000E+00  0.00000000E+00
  0.00000000E+00  0.00000000E+00  0.00000000E+00
  0.00000000E+00  0.00000000E+00  0.00000000E+00
  0.00000000E+00  0.00000000E+00  0.00000000E+00
  0.00000000E+00  0.00000000E+00  0.00000000E+00
  0.00000000E+00  0.00000000E+00  0.00000000E+00
  0.00000000E+00  0.00000000E+00  0.00000000E+00
  0.00000000E+00  0.00000000E+00  0.00000000E+00
  0.00000000E+00  0.00000000E+00  0.00000000E+00
  0.00000000E+00  0.00000000E+00  0.00000000E+00
  0.00000000E+00  0.00000000E+00  0.00000000E+00
  0.00000000E+00  0.00000000E+00  0.00000000E+00
  0.00000000E+00  0.00000000E+00  0.00000000E+00
  0.00000000E+00  0.00000000E+00  0.00000000E+00
  0.00000000E+00  0.00000000E+00  0.00000000E+00
  0.00000000E+00  0.00000000E+00  0.00000000E+00
  0.00000000E+00  0.00000000E+00  0.00000000E+00
  0.00000000E+00  0.00000000E+00  0.00000000E+00
  0.00000000E+00  0.00000000E+00  0.00000000E+00
  0.00000000E+00  0.00000000E+00  0.00000000E+00
  0.00000000E+00  0.00000000E+00  0.00000000E+00
  0.00000000E+00  0.00000000E+00  0.00000000E+00
  0.00000000E+00  0.00000000E+00  0.00000000E+00
  0.00000000E+00  0.00000000E+00  0.00000000E+00
  0.00000000E+00  0.00000000E+00  0.00000000E+00
