Sodilite                                
   1.00000000000000     
     9.0958370775980306   -0.0160103304462016    0.0146587094505890
    -0.0160097729895910    9.1069897175504337    0.0148299191556906
     0.0146517559777872    0.0148325600104548    9.0946375902442362
   O    Na   Al   Si   Cl   K 
    24     5     6     6     2     3
Direct
  0.1476680609301174  0.4458164450386174  0.1568316517593185
  0.8652870155996605  0.5533643727877650  0.1439838520592040
  0.8530971737540096  0.4451307532312754  0.8412266891778238
  0.1367138331942664  0.5443561106506576  0.8542597185905456
  0.1553462493302605  0.1475723301345044  0.4423404033993204
  0.1495937219722981  0.8643131073661331  0.5418653923283194
  0.8434345053693915  0.8549716567733114  0.4466301328857945
  0.8560749074283991  0.1366279162633274  0.5543145506889723
  0.4442377939041040  0.1477080618644802  0.1339096864484585
  0.5585335292368007  0.1572899339218636  0.8548564917071083
  0.4593421852279981  0.8553215057281744  0.8606616151607678
  0.5529247953923562  0.8460414706496078  0.1472540062767949
  0.9567024989737388  0.6424854122099706  0.6509467594293973
  0.0548590730171998  0.3580806207214068  0.6491371826403169
  0.9437105604380466  0.3601278043543380  0.3482296655447495
  0.0474831833513689  0.6418617092543027  0.3472859704355656
  0.6443876577103640  0.6518054588418775  0.9537424868097821
  0.3586043924771450  0.6535078160395257  0.0437894852668374
  0.3605358377270206  0.3496124312949054  0.9438793095873533
  0.6404634141376867  0.3506459374472278  0.0559710823888780
  0.6408940622726818  0.9571860681123767  0.6279942461758665
  0.6642493544140701  0.0584157771358016  0.3459941415800007
  0.3627481568519273  0.9587534753801621  0.3687869733785917
  0.3374501131256276  0.0556297483059516  0.6525793774607170
  0.1885404447192437  0.1901499050283418  0.1890015768050187
  0.8131671153592549  0.8174758098463917  0.1858447069534198
  0.8117790222667391  0.1896799330134601  0.8103237455283329
  0.3065981775312359  0.3080324064519861  0.6922966951732354
  0.6972415393632746  0.3056142014209959  0.3024549774424408
  0.2516474166933335  0.4986197691196412  0.0006520992820409
  0.7517717081422797  0.4989713717478667 -0.0019384471284687
  0.0018508199467295  0.2510306189290654  0.4972913498405331
 -0.0004278684170246  0.7522121928010511  0.4970535391767048
  0.5059256404701770  0.0046120580678626  0.2483114386084348
  0.4996381361449733  0.0073094283792246  0.7481575496876873
  0.2516456875702164  0.0071331554339007  0.5007523109266269
  0.7513731669784509  0.0030626094141951  0.4938581242823044
  0.5016938222205043  0.2514183082943653 -0.0025882465606941
  0.5037124222579419  0.7522668395687911  0.0009414901338617
  0.0013380803402700  0.4997623477192811  0.2486175007209822
  0.0001310977275699  0.4977688171008362  0.7485980722132181
 -0.0337418009305734  0.0404331934427340  0.0335485703627209
  0.5026112403820604  0.4204970123053192  0.4971697650190520
  0.1573764531030555  0.8437282187485947  0.8436337938390855
  0.6604012638301197  0.6612241187469494  0.6593571386626518
  0.3413843384636274  0.6623717609115822  0.3401913778503284
 
  0.00000000E+00  0.00000000E+00  0.00000000E+00
  0.00000000E+00  0.00000000E+00  0.00000000E+00
  0.00000000E+00  0.00000000E+00  0.00000000E+00
  0.00000000E+00  0.00000000E+00  0.00000000E+00
  0.00000000E+00  0.00000000E+00  0.00000000E+00
  0.00000000E+00  0.00000000E+00  0.00000000E+00
  0.00000000E+00  0.00000000E+00  0.00000000E+00
  0.00000000E+00  0.00000000E+00  0.00000000E+00
  0.00000000E+00  0.00000000E+00  0.00000000E+00
  0.00000000E+00  0.00000000E+00  0.00000000E+00
  0.00000000E+00  0.00000000E+00  0.00000000E+00
  0.00000000E+00  0.00000000E+00  0.00000000E+00
  0.00000000E+00  0.00000000E+00  0.00000000E+00
  0.00000000E+00  0.00000000E+00  0.00000000E+00
  0.00000000E+00  0.00000000E+00  0.00000000E+00
  0.00000000E+00  0.00000000E+00  0.00000000E+00
  0.00000000E+00  0.00000000E+00  0.00000000E+00
  0.00000000E+00  0.00000000E+00  0.00000000E+00
  0.00000000E+00  0.00000000E+00  0.00000000E+00
  0.00000000E+00  0.00000000E+00  0.00000000E+00
  0.00000000E+00  0.00000000E+00  0.00000000E+00
  0.00000000E+00  0.00000000E+00  0.00000000E+00
  0.00000000E+00  0.00000000E+00  0.00000000E+00
  0.00000000E+00  0.00000000E+00  0.00000000E+00
  0.00000000E+00  0.00000000E+00  0.00000000E+00
  0.00000000E+00  0.00000000E+00  0.00000000E+00
  0.00000000E+00  0.00000000E+00  0.00000000E+00
  0.00000000E+00  0.00000000E+00  0.00000000E+00
  0.00000000E+00  0.00000000E+00  0.00000000E+00
  0.00000000E+00  0.00000000E+00  0.00000000E+00
  0.00000000E+00  0.00000000E+00  0.00000000E+00
  0.00000000E+00  0.00000000E+00  0.00000000E+00
  0.00000000E+00  0.00000000E+00  0.00000000E+00
  0.00000000E+00  0.00000000E+00  0.00000000E+00
  0.00000000E+00  0.00000000E+00  0.00000000E+00
  0.00000000E+00  0.00000000E+00  0.00000000E+00
  0.00000000E+00  0.00000000E+00  0.00000000E+00
  0.00000000E+00  0.00000000E+00  0.00000000E+00
  0.00000000E+00  0.00000000E+00  0.00000000E+00
  0.00000000E+00  0.00000000E+00  0.00000000E+00
  0.00000000E+00  0.00000000E+00  0.00000000E+00
  0.00000000E+00  0.00000000E+00  0.00000000E+00
  0.00000000E+00  0.00000000E+00  0.00000000E+00
  0.00000000E+00  0.00000000E+00  0.00000000E+00
  0.00000000E+00  0.00000000E+00  0.00000000E+00
  0.00000000E+00  0.00000000E+00  0.00000000E+00
