Sodilite                                
   1.00000000000000     
     9.1326633662312222    0.0137121354080370    0.0137121331823214
     0.0137121331823214    9.1326633662312222   -0.0137121354080370
     0.0137121354080370   -0.0137121331823214    9.1326633662312222
   O    Na   Al   Si   Cl   K 
    24     5     6     6     2     3
Direct
  0.1419575426382285  0.4494880185882203  0.1558727141441232
  0.8600125816309406  0.5542291814399087  0.1502879708028103
  0.8551321306255517  0.4503935230317663  0.8490551048313483
  0.1409514148987052  0.5473607852168630  0.8500471365918367
  0.1509448951686521  0.1448678693744486  0.4503935230317663
  0.1499528634081630  0.8590485851012947  0.5473607852168630
  0.8441272858558768  0.8580424573617716  0.4494880185882203
  0.8497120291971897  0.1399874183690597  0.5542291814399087
  0.4457708185600913  0.1502879708028103  0.1399874183690597
  0.5505119814117800  0.1558727141441232  0.8580424573617716
  0.4526392147831371  0.8500471365918367  0.8590485851012947
  0.5496064769682339  0.8490551048313483  0.1448678693744486
  0.9538141470349700  0.6516516019314397  0.6613484673298677
  0.0407242506790709  0.3664891059047570  0.6451346258898253
  0.9460216906126332  0.3508767600107905  0.3415279479727255
  0.0408558284789150  0.6343181739491367  0.3581532657994255
  0.6335108940952427  0.6451346258898253  0.9592757493209281
  0.3483483980685605  0.6613484673298677  0.0461858529650300
  0.3656818260508629  0.3581532657994255  0.9591441715210847
  0.6491232399892088  0.3415279479727255  0.0539783093873669
  0.6418467342005746  0.9591441715210847  0.6343181739491367
  0.6584720520272744  0.0539783093873669  0.3508767600107905
  0.3548653741101742  0.9592757493209281  0.3664891059047570
  0.3386515326701319  0.0461858529650300  0.6516516019314397
  0.1854818752251316  0.1866185415390663  0.1876061224709744
  0.8123938775290259  0.8145181247748682  0.1866185415390663
  0.8133814584609341  0.1876061224709744  0.8145181247748682
  0.1801065612063316  0.8198934387936685  0.8198934387936685
  0.7060770100317982  0.2939229899682022  0.2939229899682022
  0.2478187276351354  0.5033971226500655  0.0038663059387398
  0.7489933619169838  0.4987133062424469  0.0037103093491399
 -0.0037103093491399  0.2510066380830160  0.4987133062424469
 -0.0038663059387398  0.7521812723648648  0.5033971226500655
  0.5012866937575532  0.0037103093491399  0.2510066380830160
  0.4966028773499349  0.0038663059387398  0.7521812723648648
  0.2479717190750304  0.0030089096708800  0.5036189281613440
  0.7484290888176548  0.0033455998867775  0.4979162971610301
  0.5020837028389697  0.2515709111823455  0.0033455998867775
  0.4963810718386563  0.7520282809249695  0.0030089096708800
 -0.0033455998867775  0.4979162971610301  0.2515709111823455
 -0.0030089096708800  0.5036189281613440  0.7520282809249695
 -0.0027740822430731  0.0027740822430731  0.0027740822430731
  0.5415373061662837  0.4584626938337161  0.4584626938337161
  0.6640865147457004  0.6696975498846036  0.6694642927860784
  0.3305357072139213  0.3359134852542993  0.6696975498846036
  0.3303024501153966  0.6694642927860784  0.3359134852542993
 
  0.00000000E+00  0.00000000E+00  0.00000000E+00
  0.00000000E+00  0.00000000E+00  0.00000000E+00
  0.00000000E+00  0.00000000E+00  0.00000000E+00
  0.00000000E+00  0.00000000E+00  0.00000000E+00
  0.00000000E+00  0.00000000E+00  0.00000000E+00
  0.00000000E+00  0.00000000E+00  0.00000000E+00
  0.00000000E+00  0.00000000E+00  0.00000000E+00
  0.00000000E+00  0.00000000E+00  0.00000000E+00
  0.00000000E+00  0.00000000E+00  0.00000000E+00
  0.00000000E+00  0.00000000E+00  0.00000000E+00
  0.00000000E+00  0.00000000E+00  0.00000000E+00
  0.00000000E+00  0.00000000E+00  0.00000000E+00
  0.00000000E+00  0.00000000E+00  0.00000000E+00
  0.00000000E+00  0.00000000E+00  0.00000000E+00
  0.00000000E+00  0.00000000E+00  0.00000000E+00
  0.00000000E+00  0.00000000E+00  0.00000000E+00
  0.00000000E+00  0.00000000E+00  0.00000000E+00
  0.00000000E+00  0.00000000E+00  0.00000000E+00
  0.00000000E+00  0.00000000E+00  0.00000000E+00
  0.00000000E+00  0.00000000E+00  0.00000000E+00
  0.00000000E+00  0.00000000E+00  0.00000000E+00
  0.00000000E+00  0.00000000E+00  0.00000000E+00
  0.00000000E+00  0.00000000E+00  0.00000000E+00
  0.00000000E+00  0.00000000E+00  0.00000000E+00
  0.00000000E+00  0.00000000E+00  0.00000000E+00
  0.00000000E+00  0.00000000E+00  0.00000000E+00
  0.00000000E+00  0.00000000E+00  0.00000000E+00
  0.00000000E+00  0.00000000E+00  0.00000000E+00
  0.00000000E+00  0.00000000E+00  0.00000000E+00
  0.00000000E+00  0.00000000E+00  0.00000000E+00
  0.00000000E+00  0.00000000E+00  0.00000000E+00
  0.00000000E+00  0.00000000E+00  0.00000000E+00
  0.00000000E+00  0.00000000E+00  0.00000000E+00
  0.00000000E+00  0.00000000E+00  0.00000000E+00
  0.00000000E+00  0.00000000E+00  0.00000000E+00
  0.00000000E+00  0.00000000E+00  0.00000000E+00
  0.00000000E+00  0.00000000E+00  0.00000000E+00
  0.00000000E+00  0.00000000E+00  0.00000000E+00
  0.00000000E+00  0.00000000E+00  0.00000000E+00
  0.00000000E+00  0.00000000E+00  0.00000000E+00
  0.00000000E+00  0.00000000E+00  0.00000000E+00
  0.00000000E+00  0.00000000E+00  0.00000000E+00
  0.00000000E+00  0.00000000E+00  0.00000000E+00
  0.00000000E+00  0.00000000E+00  0.00000000E+00
  0.00000000E+00  0.00000000E+00  0.00000000E+00
  0.00000000E+00  0.00000000E+00  0.00000000E+00
