Sodilite                                
   1.00000000000000     
     9.2874740533448392   -0.0229549467047616    0.0229549467047616
    -0.0229549467047616    9.2874740533448392    0.0229549467047616
     0.0229549467047616    0.0229549467047616    9.2874740533448392
   O    Na   Al   Si   Cl   K 
    24     2     6     6     2     6
Direct
  0.1413575775669474  0.4730506978794313  0.1457567543409763
  0.8527036858675409  0.5380235159317388  0.1559091777047728
  0.8631190519138537  0.4714159491281771  0.8475056843556100
  0.1501463163898798  0.5335870223607614  0.8410522587154193
  0.1589477412845802  0.1501463163898798  0.4664129776392383
  0.1524943156443896  0.8631190519138537  0.5285840508718231
  0.8440908222952268  0.8527036858675409  0.4619764840682617
  0.8542432456590235  0.1413575775669474  0.5269493021205689
  0.4714159491281771  0.1524943156443896  0.1368809480861463
  0.5335870223607614  0.1589477412845802  0.8498536836101205
  0.4730506978794313  0.8542432456590235  0.8586424224330523
  0.5380235159317388  0.8440908222952268  0.1472963141324590
  0.9730506978794311  0.6413575775669477  0.6457567543409765
  0.0380235159317386  0.3527036858675409  0.6559091777047732
  0.9714159491281769  0.3631190519138538  0.3475056843556105
  0.0335870223607616  0.6501463163898795  0.3410522587154198
  0.6501463163898795  0.6589477412845807  0.9664129776392386
  0.3631190519138538  0.6524943156443900  0.0285840508718230
  0.3527036858675409  0.3440908222952271  0.9619764840682612
  0.6413575775669477  0.3542432456590235  0.0269493021205688
  0.6524943156443900  0.9714159491281769  0.6368809480861463
  0.6589477412845807  0.0335870223607616  0.3498536836101200
  0.3542432456590235  0.9730506978794311  0.3586424224330526
  0.3440908222952271  0.0380235159317386  0.6472963141324591
  0.7996372788628214  0.7996372788628214  0.2003627211371785
  0.2996372788628217  0.2996372788628217  0.7003627211371786
  0.2533636465270817  0.5020485025966983 -0.0050295987721247
  0.7533636465270815  0.5050295987721245 -0.0020485025966979
  0.0050295987721247  0.2533636465270817  0.4979514974033021
  0.0020485025966979  0.7533636465270815  0.4949704012278752
  0.5050295987721245  0.0020485025966979  0.2466363534729182
  0.5020485025966983  0.0050295987721247  0.7466363534729185
  0.2530746291138230  0.0058917951146739  0.4992869441001735
  0.7530746291138232  0.0007130558998265  0.4941082048853263
  0.5007130558998264  0.2530746291138230 -0.0058917951146739
  0.5058917951146742  0.7530746291138231 -0.0007130558998265
  0.0007130558998265  0.5058917951146742  0.2469253708861772
  0.0058917951146739  0.5007130558998264  0.7469253708861768
 -0.0314802565891030 -0.0314802565891030  0.0314802565891030
  0.4685197434108969  0.4685197434108969  0.5314802565891030
  0.1761410769911557  0.1773730651501956  0.1749723343608484
  0.8250276656391521  0.1761410769911557  0.8226269348498041
  0.1773730651501956  0.8250276656391521  0.8238589230088444
  0.6773730651501959  0.6761410769911556  0.6749723343608479
  0.6761410769911556  0.3250276656391515  0.3226269348498045
  0.3250276656391515  0.6773730651501959  0.3238589230088444
 
  0.00000000E+00  0.00000000E+00  0.00000000E+00
  0.00000000E+00  0.00000000E+00  0.00000000E+00
  0.00000000E+00  0.00000000E+00  0.00000000E+00
  0.00000000E+00  0.00000000E+00  0.00000000E+00
  0.00000000E+00  0.00000000E+00  0.00000000E+00
  0.00000000E+00  0.00000000E+00  0.00000000E+00
  0.00000000E+00  0.00000000E+00  0.00000000E+00
  0.00000000E+00  0.00000000E+00  0.00000000E+00
  0.00000000E+00  0.00000000E+00  0.00000000E+00
  0.00000000E+00  0.00000000E+00  0.00000000E+00
  0.00000000E+00  0.00000000E+00  0.00000000E+00
  0.00000000E+00  0.00000000E+00  0.00000000E+00
  0.00000000E+00  0.00000000E+00  0.00000000E+00
  0.00000000E+00  0.00000000E+00  0.00000000E+00
  0.00000000E+00  0.00000000E+00  0.00000000E+00
  0.00000000E+00  0.00000000E+00  0.00000000E+00
  0.00000000E+00  0.00000000E+00  0.00000000E+00
  0.00000000E+00  0.00000000E+00  0.00000000E+00
  0.00000000E+00  0.00000000E+00  0.00000000E+00
  0.00000000E+00  0.00000000E+00  0.00000000E+00
  0.00000000E+00  0.00000000E+00  0.00000000E+00
  0.00000000E+00  0.00000000E+00  0.00000000E+00
  0.00000000E+00  0.00000000E+00  0.00000000E+00
  0.00000000E+00  0.00000000E+00  0.00000000E+00
  0.00000000E+00  0.00000000E+00  0.00000000E+00
  0.00000000E+00  0.00000000E+00  0.00000000E+00
  0.00000000E+00  0.00000000E+00  0.00000000E+00
  0.00000000E+00  0.00000000E+00  0.00000000E+00
  0.00000000E+00  0.00000000E+00  0.00000000E+00
  0.00000000E+00  0.00000000E+00  0.00000000E+00
  0.00000000E+00  0.00000000E+00  0.00000000E+00
  0.00000000E+00  0.00000000E+00  0.00000000E+00
  0.00000000E+00  0.00000000E+00  0.00000000E+00
  0.00000000E+00  0.00000000E+00  0.00000000E+00
  0.00000000E+00  0.00000000E+00  0.00000000E+00
  0.00000000E+00  0.00000000E+00  0.00000000E+00
  0.00000000E+00  0.00000000E+00  0.00000000E+00
  0.00000000E+00  0.00000000E+00  0.00000000E+00
  0.00000000E+00  0.00000000E+00  0.00000000E+00
  0.00000000E+00  0.00000000E+00  0.00000000E+00
  0.00000000E+00  0.00000000E+00  0.00000000E+00
  0.00000000E+00  0.00000000E+00  0.00000000E+00
  0.00000000E+00  0.00000000E+00  0.00000000E+00
  0.00000000E+00  0.00000000E+00  0.00000000E+00
  0.00000000E+00  0.00000000E+00  0.00000000E+00
  0.00000000E+00  0.00000000E+00  0.00000000E+00
