Sodilite                                
   1.00000000000000     
     9.3007846070943696   -0.0213995665779962    0.0000000000000000
    -0.0214084490275603    9.3015138029815425    0.0000000000000000
     0.0000000000000000    0.0000000000000000    9.3096361886275769
   O    Na   Al   Si   Cl   K 
    24     2     6     6     2     6
Direct
  0.1449259489133335  0.4741682985884854  0.1503424966363707
  0.8550740510866666  0.5258317014115145  0.1503424966363707
  0.8564829142476630  0.4702519184941782  0.8438384059169364
  0.1435170857523368  0.5297480815058224  0.8438384059169364
  0.1511641649512056  0.1429961545168839  0.4706835283918316
  0.1556751479494091  0.8547156546959903  0.5264825824922144
  0.8488358350487948  0.8570038454831163  0.4706835283918316
  0.8443248520505905  0.1452843453040094  0.5264825824922144
  0.4729359460122970  0.1543932397853925  0.1410961675917342
  0.5287202700651250  0.1525296960903882  0.8530795581701475
  0.4712797299348748  0.8474703039096116  0.8530795581701475
  0.5270640539877030  0.8456067602146076  0.1410961675917342
  0.9651034663245773  0.6440481674126212  0.6514479590151493
  0.0348965336754231  0.3559518325873788  0.6514479590151493
  0.9724127203839127  0.3561565460195569  0.3446672003009613
  0.0275872796160870  0.6438434539804433  0.3446672003009613
  0.6525791591983235  0.6614656650640635  0.9620896951222772
  0.3649769660335948  0.6449818598900401  0.0248639023275546
  0.3474208408016764  0.3385343349359364  0.9620896951222772
  0.6350230339664052  0.3550181401099599  0.0248639023275546
  0.6538851595984145  0.9638920380755929  0.6425374172858518
  0.6526063407548279  0.0265447149508303  0.3546113208034171
  0.3473936592451723  0.9734552850491700  0.3546113208034171
  0.3461148404015859  0.0361079619244074  0.6425374172858518
  0.6972754107373937  0.6973506073340174  0.7016764638055524
  0.3027245892626063  0.3026493926659829  0.7016764638055524
  0.2505660890605498  0.4977922400630040 -0.0048893913688810
  0.7494339109394500  0.5022077599369962 -0.0048893913688810
 -0.0001922694427261  0.2504051122687391  0.4983115989770652
  0.0001922694427261  0.7495948877312614  0.4983115989770652
  0.5000000000000000 -0.0000000000000000  0.2465791692545768
  0.5000000000000000 -0.0000000000000000  0.7462443782740965
  0.2502409166858456  0.0013504916564254  0.4983863415111819
  0.7497590833141543 -0.0013504916564254  0.4983863415111819
  0.4966845499868199  0.2503057014461978 -0.0049599778996964
  0.5033154500131798  0.7496942985538022 -0.0049599778996964
 -0.0000000000000000  0.5000000000000000  0.2469447036192700
 -0.0000000000000000  0.5000000000000000  0.7469484046782037
 -0.0000000000000000 -0.0000000000000000 -0.0055290824522809
  0.5000000000000000  0.5000000000000000  0.5612126472283642
  0.1812651305280954  0.1820088534968884  0.1814628333346127
  0.8187348694719039  0.8179911465031116  0.1814628333346127
  0.8150767455924186  0.1843148135179586  0.8147841327589763
  0.1849232544075813  0.8156851864820412  0.8147841327589763
  0.6718484534999896  0.3275055871690491  0.3282876545256277
  0.3281515465000107  0.6724944128309506  0.3282876545256277
 
  0.00000000E+00  0.00000000E+00  0.00000000E+00
  0.00000000E+00  0.00000000E+00  0.00000000E+00
  0.00000000E+00  0.00000000E+00  0.00000000E+00
  0.00000000E+00  0.00000000E+00  0.00000000E+00
  0.00000000E+00  0.00000000E+00  0.00000000E+00
  0.00000000E+00  0.00000000E+00  0.00000000E+00
  0.00000000E+00  0.00000000E+00  0.00000000E+00
  0.00000000E+00  0.00000000E+00  0.00000000E+00
  0.00000000E+00  0.00000000E+00  0.00000000E+00
  0.00000000E+00  0.00000000E+00  0.00000000E+00
  0.00000000E+00  0.00000000E+00  0.00000000E+00
  0.00000000E+00  0.00000000E+00  0.00000000E+00
  0.00000000E+00  0.00000000E+00  0.00000000E+00
  0.00000000E+00  0.00000000E+00  0.00000000E+00
  0.00000000E+00  0.00000000E+00  0.00000000E+00
  0.00000000E+00  0.00000000E+00  0.00000000E+00
  0.00000000E+00  0.00000000E+00  0.00000000E+00
  0.00000000E+00  0.00000000E+00  0.00000000E+00
  0.00000000E+00  0.00000000E+00  0.00000000E+00
  0.00000000E+00  0.00000000E+00  0.00000000E+00
  0.00000000E+00  0.00000000E+00  0.00000000E+00
  0.00000000E+00  0.00000000E+00  0.00000000E+00
  0.00000000E+00  0.00000000E+00  0.00000000E+00
  0.00000000E+00  0.00000000E+00  0.00000000E+00
  0.00000000E+00  0.00000000E+00  0.00000000E+00
  0.00000000E+00  0.00000000E+00  0.00000000E+00
  0.00000000E+00  0.00000000E+00  0.00000000E+00
  0.00000000E+00  0.00000000E+00  0.00000000E+00
  0.00000000E+00  0.00000000E+00  0.00000000E+00
  0.00000000E+00  0.00000000E+00  0.00000000E+00
  0.00000000E+00  0.00000000E+00  0.00000000E+00
  0.00000000E+00  0.00000000E+00  0.00000000E+00
  0.00000000E+00  0.00000000E+00  0.00000000E+00
  0.00000000E+00  0.00000000E+00  0.00000000E+00
  0.00000000E+00  0.00000000E+00  0.00000000E+00
  0.00000000E+00  0.00000000E+00  0.00000000E+00
  0.00000000E+00  0.00000000E+00  0.00000000E+00
  0.00000000E+00  0.00000000E+00  0.00000000E+00
  0.00000000E+00  0.00000000E+00  0.00000000E+00
  0.00000000E+00  0.00000000E+00  0.00000000E+00
  0.00000000E+00  0.00000000E+00  0.00000000E+00
  0.00000000E+00  0.00000000E+00  0.00000000E+00
  0.00000000E+00  0.00000000E+00  0.00000000E+00
  0.00000000E+00  0.00000000E+00  0.00000000E+00
  0.00000000E+00  0.00000000E+00  0.00000000E+00
  0.00000000E+00  0.00000000E+00  0.00000000E+00
