Sodilite                                
   1.00000000000000     
     9.0978025518653105    0.0116610741199442    0.0446126524774403
     0.0116728118795773    9.1013342934556345    0.0111379016516918
     0.0446229555294747    0.0111217352507397    9.0998548353003983
   O    Na   Al   Si   Cl   K 
    24     5     6     6     2     3
Direct
  0.1288052557123024  0.4574773977175890  0.1395854804186567
  0.8472170859484028  0.5594278963792725  0.1659327571855593
  0.8716875530196345  0.4614874716162441  0.8612075813052024
  0.1566209635999312  0.5579518020216439  0.8386536762536844
  0.1525265930145367  0.1433686221248505  0.4521739184611059
  0.1528011310750788  0.8617436147412708  0.5566939962429840
  0.8489911270388525  0.8605592590150865  0.4476908219034000
  0.8518738657710438  0.1451222510709340  0.5461940135983137
  0.4520524509367135  0.1550686286216375  0.1429867818614995
  0.5477923629116931  0.1557701467172272  0.8596625905125227
  0.4481351411681472  0.8514173490532161  0.8597292939541608
  0.5549845318909410  0.8540301472021734  0.1424604364873803
  0.9546920537118221  0.6387017643486100  0.6456893080341487
  0.0546770061534028  0.3558495079795617  0.6593286011536102
  0.9500235158820922  0.3663251607559063  0.3529147391125533
  0.0574395616036929  0.6487098147704330  0.3466725882624201
  0.6358813907108219  0.6496840608689913  0.9532861707800665
  0.3554177101621280  0.6601361127516745  0.0595572596366160
  0.3631820531684762  0.3576643108517586  0.9512115268702713
  0.6487825026636149  0.3480979089542817  0.0527589321859806
  0.6490264004834149  0.9575443558558404  0.6381044070051629
  0.6565756367417614  0.0575880512461647  0.3542472115657488
  0.3537086949824221  0.9482696763833701  0.3644957297880648
  0.3462341702783955  0.0569766269894928  0.6469972135625077
  0.8059441530034190  0.8105234062060885  0.1946799074641433
  0.1949395299166630  0.8093145143523585  0.8072699379341400
  0.3144815399157793  0.3162912656014273  0.6863285523421099
  0.6849109820225062  0.3165741126976163  0.3128150409708109
  0.3107713235057853  0.6898282808121525  0.3123090426483290
  0.2516246830105661  0.5091844071680437 -0.0002713147929160
  0.7521067071839825  0.5064186574820266  0.0068272713581850
  0.0035038661228370  0.2557121568123302  0.5022357236093672
  0.0031578632837977  0.7545938113070801  0.4996628825031281
  0.5024552685757688  0.0049130013853134  0.2520996784419283
  0.4994711995257373  0.0050968208302919  0.7517490069496560
  0.2517678469337964  0.0035486697328975  0.5042549913829802
  0.7518138286424418  0.0054554891887139  0.4975827948708250
  0.5027514202102712  0.2554655256470925  0.0023870440342806
  0.4990338696778179  0.7546142527278831  0.0037818587614993
 -0.0025694684755000  0.5087907900765288  0.2515421121811014
  0.0085950341483213  0.5049108533156450  0.7517916471358264
  0.0013264502538554 -0.0760689879497188  0.0015116771135119
  0.4644923534979390  0.4701147715004509  0.4648491309341254
  0.1601385070586415  0.1640988589415099  0.1606091279100008
  0.8416319884895970  0.1629785537623860  0.8401598538534425
  0.6585222948666526  0.6586688503646525  0.6575889962519057
 
  0.00000000E+00  0.00000000E+00  0.00000000E+00
  0.00000000E+00  0.00000000E+00  0.00000000E+00
  0.00000000E+00  0.00000000E+00  0.00000000E+00
  0.00000000E+00  0.00000000E+00  0.00000000E+00
  0.00000000E+00  0.00000000E+00  0.00000000E+00
  0.00000000E+00  0.00000000E+00  0.00000000E+00
  0.00000000E+00  0.00000000E+00  0.00000000E+00
  0.00000000E+00  0.00000000E+00  0.00000000E+00
  0.00000000E+00  0.00000000E+00  0.00000000E+00
  0.00000000E+00  0.00000000E+00  0.00000000E+00
  0.00000000E+00  0.00000000E+00  0.00000000E+00
  0.00000000E+00  0.00000000E+00  0.00000000E+00
  0.00000000E+00  0.00000000E+00  0.00000000E+00
  0.00000000E+00  0.00000000E+00  0.00000000E+00
  0.00000000E+00  0.00000000E+00  0.00000000E+00
  0.00000000E+00  0.00000000E+00  0.00000000E+00
  0.00000000E+00  0.00000000E+00  0.00000000E+00
  0.00000000E+00  0.00000000E+00  0.00000000E+00
  0.00000000E+00  0.00000000E+00  0.00000000E+00
  0.00000000E+00  0.00000000E+00  0.00000000E+00
  0.00000000E+00  0.00000000E+00  0.00000000E+00
  0.00000000E+00  0.00000000E+00  0.00000000E+00
  0.00000000E+00  0.00000000E+00  0.00000000E+00
  0.00000000E+00  0.00000000E+00  0.00000000E+00
  0.00000000E+00  0.00000000E+00  0.00000000E+00
  0.00000000E+00  0.00000000E+00  0.00000000E+00
  0.00000000E+00  0.00000000E+00  0.00000000E+00
  0.00000000E+00  0.00000000E+00  0.00000000E+00
  0.00000000E+00  0.00000000E+00  0.00000000E+00
  0.00000000E+00  0.00000000E+00  0.00000000E+00
  0.00000000E+00  0.00000000E+00  0.00000000E+00
  0.00000000E+00  0.00000000E+00  0.00000000E+00
  0.00000000E+00  0.00000000E+00  0.00000000E+00
  0.00000000E+00  0.00000000E+00  0.00000000E+00
  0.00000000E+00  0.00000000E+00  0.00000000E+00
  0.00000000E+00  0.00000000E+00  0.00000000E+00
  0.00000000E+00  0.00000000E+00  0.00000000E+00
  0.00000000E+00  0.00000000E+00  0.00000000E+00
  0.00000000E+00  0.00000000E+00  0.00000000E+00
  0.00000000E+00  0.00000000E+00  0.00000000E+00
  0.00000000E+00  0.00000000E+00  0.00000000E+00
  0.00000000E+00  0.00000000E+00  0.00000000E+00
  0.00000000E+00  0.00000000E+00  0.00000000E+00
  0.00000000E+00  0.00000000E+00  0.00000000E+00
  0.00000000E+00  0.00000000E+00  0.00000000E+00
  0.00000000E+00  0.00000000E+00  0.00000000E+00
