Sodilite                                
   1.00000000000000     
     9.3433766173175208    0.0093217849014798   -0.0093217868205547
     0.0093217868205547    9.3433766173175208    0.0093217849014798
    -0.0093217849014798    0.0093217868205547    9.3433766173175208
   O    Na   Al   Si   Cl   K 
    24     1     6     6     2     7
Direct
  0.1443496624621085  0.4737394869482447  0.1530748049825441
  0.8565968698224500  0.5236116883577407  0.1569201393400071
  0.8575941798345412  0.4774573381761403  0.8487450669506013
  0.1469306518955023  0.5225882061611360  0.8470765324975361
  0.1569201393400071  0.1434031301775502  0.4763883116422588
  0.1530748049825441  0.8556503375378913  0.5262605130517549
  0.8470765324975361  0.8530693481044976  0.4774117938388642
  0.8487450669506013  0.1424058201654585  0.5225426618238596
  0.4774117938388642  0.1529234675024637  0.1469306518955023
  0.5225426618238596  0.1512549330493992  0.8575941798345412
  0.4763883116422588  0.8430798606599932  0.8565968698224500
  0.5262605130517549  0.8469251950174561  0.1443496624621085
  0.9772031912128387  0.6385081115803368  0.6500741729931270
  0.0244571733223293  0.3504779430804573  0.6586301332346339
  0.9782073327068925  0.3600882654446130  0.3526615523871295
  0.0330418531482192  0.6485888815481579  0.3423827916874523
  0.6399117345553871  0.6473384476128698  0.9782073327068925
  0.3514111184518416  0.6576172083125483  0.0330418531482192
  0.3614918884196631  0.3499258270068733  0.9772031912128387
  0.6495220569195427  0.3413698667653661  0.0244571733223293
  0.6586301332346339  0.9755428266776709  0.6495220569195427
  0.6500741729931270  0.0227968087871614  0.3614918884196631
  0.3423827916874523  0.9669581468517812  0.3514111184518416
  0.3526615523871295  0.0217926672931080  0.6399117345553871
  0.2947721801044194  0.7052278198955806  0.2947721801044194
  0.2518993186379936  0.5004955402365413  0.0024308713108886
  0.7515563828293572  0.4978717551561618  0.0026284354656304
  0.0026284354656304  0.2484436171706426  0.5021282448438381
  0.0024308713108886  0.7481006813620067  0.4995044597634579
  0.4995044597634579 -0.0024308713108886  0.2518993186379936
  0.5021282448438381 -0.0026284354656304  0.7515563828293572
  0.2516463537618478 -0.0030601478358236  0.4989187887605105
  0.7514137336855785 -0.0019318995677437  0.5025287998144322
  0.5025287998144322  0.2485862663144219  0.0019318995677437
  0.4989187887605105  0.7483536462381519  0.0030601478358236
  0.0030601478358236  0.5010812112394899  0.2516463537618477
  0.0019318995677437  0.4974712001855677  0.7514137336855785
  0.0032416999860610 -0.0032416999860610  0.0032416999860610
  0.4668898672121610  0.5331101327878385  0.4668898672121610
  0.1858738985756592  0.1854244450502825  0.1852581617669928
  0.8145755549497178  0.8147418382330073  0.1858738985756592
  0.8185001599352665  0.1814998400647340  0.8185001599352665
  0.1852581617669928  0.8141261014243413  0.8145755549497178
  0.6777627148299522  0.6777040190411139  0.6782961582226982
  0.3222959809588856  0.3217038417773015  0.6777627148299522
  0.6782961582226982  0.3222372851700480  0.3222959809588856
 
  0.00000000E+00  0.00000000E+00  0.00000000E+00
  0.00000000E+00  0.00000000E+00  0.00000000E+00
  0.00000000E+00  0.00000000E+00  0.00000000E+00
  0.00000000E+00  0.00000000E+00  0.00000000E+00
  0.00000000E+00  0.00000000E+00  0.00000000E+00
  0.00000000E+00  0.00000000E+00  0.00000000E+00
  0.00000000E+00  0.00000000E+00  0.00000000E+00
  0.00000000E+00  0.00000000E+00  0.00000000E+00
  0.00000000E+00  0.00000000E+00  0.00000000E+00
  0.00000000E+00  0.00000000E+00  0.00000000E+00
  0.00000000E+00  0.00000000E+00  0.00000000E+00
  0.00000000E+00  0.00000000E+00  0.00000000E+00
  0.00000000E+00  0.00000000E+00  0.00000000E+00
  0.00000000E+00  0.00000000E+00  0.00000000E+00
  0.00000000E+00  0.00000000E+00  0.00000000E+00
  0.00000000E+00  0.00000000E+00  0.00000000E+00
  0.00000000E+00  0.00000000E+00  0.00000000E+00
  0.00000000E+00  0.00000000E+00  0.00000000E+00
  0.00000000E+00  0.00000000E+00  0.00000000E+00
  0.00000000E+00  0.00000000E+00  0.00000000E+00
  0.00000000E+00  0.00000000E+00  0.00000000E+00
  0.00000000E+00  0.00000000E+00  0.00000000E+00
  0.00000000E+00  0.00000000E+00  0.00000000E+00
  0.00000000E+00  0.00000000E+00  0.00000000E+00
  0.00000000E+00  0.00000000E+00  0.00000000E+00
  0.00000000E+00  0.00000000E+00  0.00000000E+00
  0.00000000E+00  0.00000000E+00  0.00000000E+00
  0.00000000E+00  0.00000000E+00  0.00000000E+00
  0.00000000E+00  0.00000000E+00  0.00000000E+00
  0.00000000E+00  0.00000000E+00  0.00000000E+00
  0.00000000E+00  0.00000000E+00  0.00000000E+00
  0.00000000E+00  0.00000000E+00  0.00000000E+00
  0.00000000E+00  0.00000000E+00  0.00000000E+00
  0.00000000E+00  0.00000000E+00  0.00000000E+00
  0.00000000E+00  0.00000000E+00  0.00000000E+00
  0.00000000E+00  0.00000000E+00  0.00000000E+00
  0.00000000E+00  0.00000000E+00  0.00000000E+00
  0.00000000E+00  0.00000000E+00  0.00000000E+00
  0.00000000E+00  0.00000000E+00  0.00000000E+00
  0.00000000E+00  0.00000000E+00  0.00000000E+00
  0.00000000E+00  0.00000000E+00  0.00000000E+00
  0.00000000E+00  0.00000000E+00  0.00000000E+00
  0.00000000E+00  0.00000000E+00  0.00000000E+00
  0.00000000E+00  0.00000000E+00  0.00000000E+00
  0.00000000E+00  0.00000000E+00  0.00000000E+00
  0.00000000E+00  0.00000000E+00  0.00000000E+00
