Sodilite                                
   1.00000000000000     
     9.2660483385783277   -0.0002113072419258   -0.0002113072419258
    -0.0002109026711060    9.2771404677480955    0.0156512155632560
    -0.0002109026711060    0.0156512155632560    9.2771404677480955
   O    Na   Al   Si   Cl   K 
    24     2     6     6     2     6
Direct
  0.1540678355326368  0.4691373671115560  0.1593654222875102
  0.8650789847294155  0.5267955540903119  0.1462549744036296
  0.8511677289738101  0.4584236991284236  0.8375705234697755
  0.1366330685081716  0.5320155701395115  0.8563447396062979
  0.1470213195748794  0.1355937267060544  0.4674688766298461
  0.1642174641146825  0.8499184443332907  0.5319806261506490
  0.8568163244136041  0.8635261905651331  0.4739045600045021
  0.8422211592356875  0.1521367937991832  0.5403363815321968
  0.4715386897427507  0.1499522306659423  0.1378687709803571
  0.5451333142511836  0.1573182349231921  0.8516982390729149
  0.4719095852934080  0.8518874937999739  0.8597440601390701
  0.5300386645128385  0.8428475645414431  0.1484210936939564
  0.9715386897427508  0.6378687709803570  0.6499522306659418
  0.0451333142511836  0.3516982390729148  0.6573182349231921
  0.9719095852934073  0.3597440601390706  0.3518874937999733
  0.0300386645128385  0.6484210936939567  0.3428475645414428
  0.6540678355326363  0.6593654222875104  0.9691373671115561
  0.3650789847294159  0.6462549744036297  0.0267955540903121
  0.3511677289738100  0.3375705234697760  0.9584236991284234
  0.6366330685081713  0.3563447396062979  0.0320155701395111
  0.6470213195748793  0.9674688766298464  0.6355937267060545
  0.6642174641146822  0.0319806261506489  0.3499184443332907
  0.3568163244136041  0.9739045600045022  0.3635261905651331
  0.3422211592356872  0.0403363815321970  0.6521367937991831
  0.7940348314440969  0.2061109420070916  0.7927857550048484
  0.2940348314440968  0.2927857550048488  0.7061109420070920
  0.2536420536778353  0.4959103507076149 -0.0003632220801046
  0.7536420536778354  0.4996367779198954 -0.0040896492923851
  0.0020249325659952  0.2500197738369093  0.5038187054523914
  0.0058926242388688  0.7499154629142902  0.5008148554648676
  0.5058926242388685  0.0008148554648678  0.2499154629142903
  0.5020249325659950  0.0038187054523920  0.7500197738369091
  0.2533652335126131  0.0003536170642729  0.5038453505151103
  0.7533652335126139  0.0038453505151101  0.5003536170642735
  0.5017101608482475  0.2501479123817709 -0.0047669345687997
  0.5054979442261626  0.7500588408790780  0.0002982063209112
  0.0054979442261631  0.5002982063209114  0.2500588408790779
  0.0017101608482475  0.4952330654312003  0.7501479123817706
 -0.0327780636028059  0.0387413372992532 -0.0388448491370048
  0.4672219363971942  0.4611551508629954  0.5387413372992524
  0.1756445284326335  0.1744729413880117  0.1757832069987106
  0.8292890024342475  0.8276932641840888  0.1726935624545430
  0.1758326133390369  0.8238339790553159  0.8261658040821075
  0.6756445284326341  0.6757832069987104  0.6744729413880119
  0.6758326133390368  0.3261658040821074  0.3238339790553152
  0.3292890024342477  0.6726935624545434  0.3276932641840888
 
  0.00000000E+00  0.00000000E+00  0.00000000E+00
  0.00000000E+00  0.00000000E+00  0.00000000E+00
  0.00000000E+00  0.00000000E+00  0.00000000E+00
  0.00000000E+00  0.00000000E+00  0.00000000E+00
  0.00000000E+00  0.00000000E+00  0.00000000E+00
  0.00000000E+00  0.00000000E+00  0.00000000E+00
  0.00000000E+00  0.00000000E+00  0.00000000E+00
  0.00000000E+00  0.00000000E+00  0.00000000E+00
  0.00000000E+00  0.00000000E+00  0.00000000E+00
  0.00000000E+00  0.00000000E+00  0.00000000E+00
  0.00000000E+00  0.00000000E+00  0.00000000E+00
  0.00000000E+00  0.00000000E+00  0.00000000E+00
  0.00000000E+00  0.00000000E+00  0.00000000E+00
  0.00000000E+00  0.00000000E+00  0.00000000E+00
  0.00000000E+00  0.00000000E+00  0.00000000E+00
  0.00000000E+00  0.00000000E+00  0.00000000E+00
  0.00000000E+00  0.00000000E+00  0.00000000E+00
  0.00000000E+00  0.00000000E+00  0.00000000E+00
  0.00000000E+00  0.00000000E+00  0.00000000E+00
  0.00000000E+00  0.00000000E+00  0.00000000E+00
  0.00000000E+00  0.00000000E+00  0.00000000E+00
  0.00000000E+00  0.00000000E+00  0.00000000E+00
  0.00000000E+00  0.00000000E+00  0.00000000E+00
  0.00000000E+00  0.00000000E+00  0.00000000E+00
  0.00000000E+00  0.00000000E+00  0.00000000E+00
  0.00000000E+00  0.00000000E+00  0.00000000E+00
  0.00000000E+00  0.00000000E+00  0.00000000E+00
  0.00000000E+00  0.00000000E+00  0.00000000E+00
  0.00000000E+00  0.00000000E+00  0.00000000E+00
  0.00000000E+00  0.00000000E+00  0.00000000E+00
  0.00000000E+00  0.00000000E+00  0.00000000E+00
  0.00000000E+00  0.00000000E+00  0.00000000E+00
  0.00000000E+00  0.00000000E+00  0.00000000E+00
  0.00000000E+00  0.00000000E+00  0.00000000E+00
  0.00000000E+00  0.00000000E+00  0.00000000E+00
  0.00000000E+00  0.00000000E+00  0.00000000E+00
  0.00000000E+00  0.00000000E+00  0.00000000E+00
  0.00000000E+00  0.00000000E+00  0.00000000E+00
  0.00000000E+00  0.00000000E+00  0.00000000E+00
  0.00000000E+00  0.00000000E+00  0.00000000E+00
  0.00000000E+00  0.00000000E+00  0.00000000E+00
  0.00000000E+00  0.00000000E+00  0.00000000E+00
  0.00000000E+00  0.00000000E+00  0.00000000E+00
  0.00000000E+00  0.00000000E+00  0.00000000E+00
  0.00000000E+00  0.00000000E+00  0.00000000E+00
  0.00000000E+00  0.00000000E+00  0.00000000E+00
