Sodilite                                
   1.00000000000000     
     9.1728941966201472    0.0030973776714819   -0.0030973785543007
     0.0030973785543007    9.1728941966201472   -0.0030973776714819
    -0.0030973776714819   -0.0030973785543007    9.1728941966201472
   O    Na   Al   Si   Cl   K 
    24     4     6     6     2     4
Direct
  0.1339163890846465  0.4610383292459966  0.1442645034600965
  0.8503389602142939  0.5515791285502758  0.1595419520772267
  0.8635575400624769  0.4625804445315502  0.8558923093230500
  0.1501741946738834  0.5399577965138334  0.8396683714197766
  0.1603316285802232  0.1501741946738834  0.4600422034861663
  0.1441076906769496  0.8635575400624769  0.5374195554684500
  0.8404580479227737  0.8503389602142939  0.4484208714497241
  0.8557354965399033  0.1339163890846465  0.5389616707540031
  0.4625804445315502  0.1441076906769496  0.1364424599375236
  0.5399577965138334  0.1603316285802232  0.8498258053261163
  0.4610383292459966  0.8557354965399033  0.8660836109153537
  0.5515791285502758  0.8404580479227737  0.1496610397857057
  0.9517043047086710  0.6497685196480834  0.6568386701389247
  0.0344730965638278  0.3625760852713431  0.6465584071592037
  0.9514542699279410  0.3524770061452060  0.3402832545312362
  0.0501301745009538  0.6350407575252464  0.3545780424902711
  0.6350407575252464  0.6454219575097287  0.9498698254990461
  0.3524770061452060  0.6597167454687644  0.0485457300720590
  0.3625760852713431  0.3534415928407962  0.9655269034361716
  0.6497685196480834  0.3431613298610756  0.0482956952913290
  0.6597167454687644  0.9514542699279409  0.6475229938547938
  0.6454219575097287  0.0501301745009538  0.3649592424747541
  0.3431613298610756  0.9517043047086710  0.3502314803519168
  0.3534415928407962  0.0344730965638278  0.6374239147286567
  0.7913153108251297  0.7913153108251297  0.2086846891748702
  0.6931333274576045  0.6924057676967666  0.6898922087799405
  0.6924057676967666  0.3101077912200592  0.3068666725423950
  0.3101077912200592  0.6931333274576045  0.3075942323032331
  0.2503195267328576  0.5041890025478193 -0.0003637038247688
  0.7495202867574696  0.5016382060968285  0.0035970299434621
  0.0003637038247688  0.2503195267328576  0.4958109974521814
 -0.0035970299434621  0.7495202867574696  0.4983617939031715
  0.5016382060968285 -0.0035970299434621  0.2504797132425304
  0.5041890025478193  0.0003637038247688  0.7496804732671423
  0.2505188925426503 -0.0001345633645416  0.4960950281323013
  0.7502290457027255 -0.0035586568948386  0.4992415889534375
  0.5039049718676987  0.2505188925426503  0.0001345633645416
  0.5007584110465623  0.7502290457027255  0.0035586568948386
 -0.0035586568948386  0.5007584110465623  0.2497709542972746
 -0.0001345633645416  0.5039049718676987  0.7494811074573497
 -0.0421813504353890 -0.0421813504353890  0.0421813504353890
  0.5340860523286993  0.5340860523286993  0.4659139476713008
  0.1705662385359584  0.1697412572277250  0.1668625309723298
  0.8331374690276703  0.1705662385359584  0.8302587427722750
  0.1697412572277250  0.8331374690276703  0.8294337614640415
  0.3403948526307939  0.3403948526307940  0.6596051473692065
 
  0.00000000E+00  0.00000000E+00  0.00000000E+00
  0.00000000E+00  0.00000000E+00  0.00000000E+00
  0.00000000E+00  0.00000000E+00  0.00000000E+00
  0.00000000E+00  0.00000000E+00  0.00000000E+00
  0.00000000E+00  0.00000000E+00  0.00000000E+00
  0.00000000E+00  0.00000000E+00  0.00000000E+00
  0.00000000E+00  0.00000000E+00  0.00000000E+00
  0.00000000E+00  0.00000000E+00  0.00000000E+00
  0.00000000E+00  0.00000000E+00  0.00000000E+00
  0.00000000E+00  0.00000000E+00  0.00000000E+00
  0.00000000E+00  0.00000000E+00  0.00000000E+00
  0.00000000E+00  0.00000000E+00  0.00000000E+00
  0.00000000E+00  0.00000000E+00  0.00000000E+00
  0.00000000E+00  0.00000000E+00  0.00000000E+00
  0.00000000E+00  0.00000000E+00  0.00000000E+00
  0.00000000E+00  0.00000000E+00  0.00000000E+00
  0.00000000E+00  0.00000000E+00  0.00000000E+00
  0.00000000E+00  0.00000000E+00  0.00000000E+00
  0.00000000E+00  0.00000000E+00  0.00000000E+00
  0.00000000E+00  0.00000000E+00  0.00000000E+00
  0.00000000E+00  0.00000000E+00  0.00000000E+00
  0.00000000E+00  0.00000000E+00  0.00000000E+00
  0.00000000E+00  0.00000000E+00  0.00000000E+00
  0.00000000E+00  0.00000000E+00  0.00000000E+00
  0.00000000E+00  0.00000000E+00  0.00000000E+00
  0.00000000E+00  0.00000000E+00  0.00000000E+00
  0.00000000E+00  0.00000000E+00  0.00000000E+00
  0.00000000E+00  0.00000000E+00  0.00000000E+00
  0.00000000E+00  0.00000000E+00  0.00000000E+00
  0.00000000E+00  0.00000000E+00  0.00000000E+00
  0.00000000E+00  0.00000000E+00  0.00000000E+00
  0.00000000E+00  0.00000000E+00  0.00000000E+00
  0.00000000E+00  0.00000000E+00  0.00000000E+00
  0.00000000E+00  0.00000000E+00  0.00000000E+00
  0.00000000E+00  0.00000000E+00  0.00000000E+00
  0.00000000E+00  0.00000000E+00  0.00000000E+00
  0.00000000E+00  0.00000000E+00  0.00000000E+00
  0.00000000E+00  0.00000000E+00  0.00000000E+00
  0.00000000E+00  0.00000000E+00  0.00000000E+00
  0.00000000E+00  0.00000000E+00  0.00000000E+00
  0.00000000E+00  0.00000000E+00  0.00000000E+00
  0.00000000E+00  0.00000000E+00  0.00000000E+00
  0.00000000E+00  0.00000000E+00  0.00000000E+00
  0.00000000E+00  0.00000000E+00  0.00000000E+00
  0.00000000E+00  0.00000000E+00  0.00000000E+00
  0.00000000E+00  0.00000000E+00  0.00000000E+00
