Sodilite                                
   1.00000000000000     
     9.1326692416458126   -0.0137332605195222    0.0137332589968455
    -0.0137332589968455    9.1326692416458126    0.0137332605195222
     0.0137332605195222    0.0137332589968455    9.1326692416458126
   O    Na   Al   Si   Cl   K 
    24     5     6     6     2     3
Direct
  0.1343151228172287  0.4591425898087998  0.1418439434532038
  0.8508777024793516  0.5539782231566918  0.1584727974729835
  0.8664892162879063  0.4592723991147102  0.8548670363481973
  0.1516518082771121  0.5461872803529920  0.8386511855684273
  0.1613488144315732  0.1516518082771121  0.4538127196470076
  0.1451329636518017  0.8664892162879063  0.5407276008852897
  0.8415272025270163  0.8508777024793516  0.4460217768433075
  0.8581560565467961  0.1343151228172287  0.5408574101912001
  0.4592723991147102  0.1451329636518017  0.1335107837120937
  0.5461872803529920  0.1613488144315732  0.8483481917228874
  0.4591425898087998  0.8581560565467961  0.8656848771827711
  0.5539782231566918  0.8415272025270163  0.1491222975206483
  0.9503937129793348  0.6448669120853548  0.6509421476264081
  0.0473557901274003  0.3590514604837773  0.6499487453861105
  0.9494852689201839  0.3580455495815274  0.3441267480623659
  0.0542330483186822  0.6399827075185914  0.3497162400638600
  0.6399827075185914  0.6502837599361402  0.9457669516813175
  0.3580455495815274  0.6558732519376336  0.0505147310798166
  0.3590514604837773  0.3500512546138889  0.9526442098725998
  0.6448669120853548  0.3490578523735915  0.0496062870206654
  0.6558732519376336  0.9494852689201839  0.6419544504184723
  0.6502837599361402  0.0542330483186822  0.3600172924814087
  0.3490578523735915  0.9503937129793348  0.3551330879146450
  0.3500512546138889  0.0473557901274003  0.6409485395162229
  0.7939229008158762  0.7939229008158762  0.2060770991841239
  0.6876081585349422  0.6866218963472840  0.6854843504417096
  0.3198946320789621  0.3198946320789621  0.6801053679210375
  0.6866218963472840  0.3145156495582904  0.3123918414650580
  0.3145156495582904  0.6876081585349422  0.3133781036527162
  0.2521841270439616  0.5038665016343284 -0.0033983192953877
  0.7510055390714564  0.5037098931647983  0.0012856861304358
  0.0033983192953877  0.2521841270439616  0.4961334983656719
 -0.0012856861304358  0.7510055390714564  0.4962901068352014
  0.5037098931647983 -0.0012856861304358  0.2489944609285438
  0.5038665016343284  0.0033983192953877  0.7478158729560388
  0.2520278788388406  0.0036191231164835  0.4969909755086327
  0.7515693978177052 -0.0020827330107902  0.4966543655893899
  0.5030090244913666  0.2520278788388406 -0.0036191231164835
  0.5033456344106104  0.7515693978177052  0.0020827330107902
 -0.0020827330107902  0.5033456344106104  0.2484306021822949
  0.0036191231164835  0.5030090244913666  0.7479721211611595
 -0.0415380179533338 -0.0415380179533338  0.0415380179533338
  0.5027749500582456  0.5027749500582456  0.4972250499417541
  0.1694620185031200  0.1696957601863532  0.1640849162015394
  0.8359150837984608  0.1694620185031200  0.8303042398136475
  0.1696957601863532  0.8359150837984608  0.8305379814968796
 
  0.00000000E+00  0.00000000E+00  0.00000000E+00
  0.00000000E+00  0.00000000E+00  0.00000000E+00
  0.00000000E+00  0.00000000E+00  0.00000000E+00
  0.00000000E+00  0.00000000E+00  0.00000000E+00
  0.00000000E+00  0.00000000E+00  0.00000000E+00
  0.00000000E+00  0.00000000E+00  0.00000000E+00
  0.00000000E+00  0.00000000E+00  0.00000000E+00
  0.00000000E+00  0.00000000E+00  0.00000000E+00
  0.00000000E+00  0.00000000E+00  0.00000000E+00
  0.00000000E+00  0.00000000E+00  0.00000000E+00
  0.00000000E+00  0.00000000E+00  0.00000000E+00
  0.00000000E+00  0.00000000E+00  0.00000000E+00
  0.00000000E+00  0.00000000E+00  0.00000000E+00
  0.00000000E+00  0.00000000E+00  0.00000000E+00
  0.00000000E+00  0.00000000E+00  0.00000000E+00
  0.00000000E+00  0.00000000E+00  0.00000000E+00
  0.00000000E+00  0.00000000E+00  0.00000000E+00
  0.00000000E+00  0.00000000E+00  0.00000000E+00
  0.00000000E+00  0.00000000E+00  0.00000000E+00
  0.00000000E+00  0.00000000E+00  0.00000000E+00
  0.00000000E+00  0.00000000E+00  0.00000000E+00
  0.00000000E+00  0.00000000E+00  0.00000000E+00
  0.00000000E+00  0.00000000E+00  0.00000000E+00
  0.00000000E+00  0.00000000E+00  0.00000000E+00
  0.00000000E+00  0.00000000E+00  0.00000000E+00
  0.00000000E+00  0.00000000E+00  0.00000000E+00
  0.00000000E+00  0.00000000E+00  0.00000000E+00
  0.00000000E+00  0.00000000E+00  0.00000000E+00
  0.00000000E+00  0.00000000E+00  0.00000000E+00
  0.00000000E+00  0.00000000E+00  0.00000000E+00
  0.00000000E+00  0.00000000E+00  0.00000000E+00
  0.00000000E+00  0.00000000E+00  0.00000000E+00
  0.00000000E+00  0.00000000E+00  0.00000000E+00
  0.00000000E+00  0.00000000E+00  0.00000000E+00
  0.00000000E+00  0.00000000E+00  0.00000000E+00
  0.00000000E+00  0.00000000E+00  0.00000000E+00
  0.00000000E+00  0.00000000E+00  0.00000000E+00
  0.00000000E+00  0.00000000E+00  0.00000000E+00
  0.00000000E+00  0.00000000E+00  0.00000000E+00
  0.00000000E+00  0.00000000E+00  0.00000000E+00
  0.00000000E+00  0.00000000E+00  0.00000000E+00
  0.00000000E+00  0.00000000E+00  0.00000000E+00
  0.00000000E+00  0.00000000E+00  0.00000000E+00
  0.00000000E+00  0.00000000E+00  0.00000000E+00
  0.00000000E+00  0.00000000E+00  0.00000000E+00
  0.00000000E+00  0.00000000E+00  0.00000000E+00
