Sodilite                                
   1.00000000000000     
     9.2271355852300569   -0.0132269338171205   -0.0146730665599314
    -0.0132339674237563    9.2279010570250879   -0.0359185844417872
    -0.0146809191992145   -0.0359338135293345    9.2274085433749722
   O    Na   Al   Si   Cl   K 
    24     3     6     6     2     5
Direct
  0.1471151959585123  0.4547380902281933  0.1604026125284656
  0.8620700333962841  0.5352180758806894  0.1423647599791866
  0.8454068138893999  0.4616764735231877  0.8401666006289882
  0.1326926005186718  0.5317364616570226  0.8515102021586043
  0.1557344547567099  0.1507045851016794  0.4561175597981111
  0.1412405358921437  0.8621029033235549  0.5299722185721346
  0.8358565317972592  0.8493744546782669  0.4604889873911711
  0.8510291108932674  0.1341529580407052  0.5365577011428683
  0.4518787748964163  0.1569017947934269  0.1486092426765936
  0.5318720410107040  0.1471399696344924  0.8621995131539700
  0.4624669373735423  0.8413580805333047  0.8495741809157394
  0.5323030074174860  0.8507117320882090  0.1372487019676502
  0.9556197826116725  0.6520083272570096  0.6604476616111085
  0.0307315477610925  0.3645272013870216  0.6419598828130257
  0.9496388498631541  0.3471892057586790  0.3380641264866877
  0.0318496184154015  0.6321927870055405  0.3536062989382421
  0.6397253750416259  0.6504527659236755  0.9593207476988349
  0.3512985994716930  0.6525370188629037  0.0335021024266670
  0.3571830489279556  0.3501576917451340  0.9622954300261435
  0.6421095437394347  0.3425733498828807  0.0450918525504236
  0.6480297291135410  0.9601741449678768  0.6412477847661404
  0.6506892337196960  0.0431838035260769  0.3537228430075854
  0.3468772093408507  0.9616622718871359  0.3583365661220274
  0.3402374320290561  0.0353770865210786  0.6437283465315876
  0.2020190188576196  0.2024433789371536  0.2036627800385629
  0.6932779106388525  0.6909722638225169  0.6911901106612335
  0.6971857658224885  0.3011527078273185  0.3026499383482875
  0.2444651561943568  0.4971485332154907  0.0014777861156173
  0.7449365629796519  0.4964712593218868 -0.0024544504896542
 -0.0044693886121446  0.2488599612879915  0.4939671419563286
 -0.0088214680183211  0.7478367007386848  0.4994117954726871
  0.4954085082921472  0.0014452235115877  0.2486507265962020
  0.4947963078327861 -0.0022786768931094  0.7482503206294334
  0.2449011791869599  0.0020046118703609  0.4968150296759049
  0.7453964442619361 -0.0029102874210838  0.4974014689828226
  0.4953172584640460  0.2488358516192958  0.0035581064200176
  0.4956951754496064  0.7483178966518255 -0.0042121188722044
 -0.0034711790004481  0.4926822925540211  0.2486089855203618
 -0.0090821318413078  0.5012627605342331  0.7480771898587536
  0.0330428739247793  0.0367645269819275  0.0368469572637236
  0.5640949893551874  0.4960923150346544  0.4962644941397035
  0.8255577930630642  0.8250326751300150  0.1706390615090047
  0.8250230273313195  0.1714272359557611  0.8261440799172993
  0.1692341691831111  0.8280323788402113  0.8268016693687018
  0.3305178247282027  0.3324776673236635  0.6686162871497006
  0.3313181940705368  0.6680774889478464  0.3310967158455558
 
  0.00000000E+00  0.00000000E+00  0.00000000E+00
  0.00000000E+00  0.00000000E+00  0.00000000E+00
  0.00000000E+00  0.00000000E+00  0.00000000E+00
  0.00000000E+00  0.00000000E+00  0.00000000E+00
  0.00000000E+00  0.00000000E+00  0.00000000E+00
  0.00000000E+00  0.00000000E+00  0.00000000E+00
  0.00000000E+00  0.00000000E+00  0.00000000E+00
  0.00000000E+00  0.00000000E+00  0.00000000E+00
  0.00000000E+00  0.00000000E+00  0.00000000E+00
  0.00000000E+00  0.00000000E+00  0.00000000E+00
  0.00000000E+00  0.00000000E+00  0.00000000E+00
  0.00000000E+00  0.00000000E+00  0.00000000E+00
  0.00000000E+00  0.00000000E+00  0.00000000E+00
  0.00000000E+00  0.00000000E+00  0.00000000E+00
  0.00000000E+00  0.00000000E+00  0.00000000E+00
  0.00000000E+00  0.00000000E+00  0.00000000E+00
  0.00000000E+00  0.00000000E+00  0.00000000E+00
  0.00000000E+00  0.00000000E+00  0.00000000E+00
  0.00000000E+00  0.00000000E+00  0.00000000E+00
  0.00000000E+00  0.00000000E+00  0.00000000E+00
  0.00000000E+00  0.00000000E+00  0.00000000E+00
  0.00000000E+00  0.00000000E+00  0.00000000E+00
  0.00000000E+00  0.00000000E+00  0.00000000E+00
  0.00000000E+00  0.00000000E+00  0.00000000E+00
  0.00000000E+00  0.00000000E+00  0.00000000E+00
  0.00000000E+00  0.00000000E+00  0.00000000E+00
  0.00000000E+00  0.00000000E+00  0.00000000E+00
  0.00000000E+00  0.00000000E+00  0.00000000E+00
  0.00000000E+00  0.00000000E+00  0.00000000E+00
  0.00000000E+00  0.00000000E+00  0.00000000E+00
  0.00000000E+00  0.00000000E+00  0.00000000E+00
  0.00000000E+00  0.00000000E+00  0.00000000E+00
  0.00000000E+00  0.00000000E+00  0.00000000E+00
  0.00000000E+00  0.00000000E+00  0.00000000E+00
  0.00000000E+00  0.00000000E+00  0.00000000E+00
  0.00000000E+00  0.00000000E+00  0.00000000E+00
  0.00000000E+00  0.00000000E+00  0.00000000E+00
  0.00000000E+00  0.00000000E+00  0.00000000E+00
  0.00000000E+00  0.00000000E+00  0.00000000E+00
  0.00000000E+00  0.00000000E+00  0.00000000E+00
  0.00000000E+00  0.00000000E+00  0.00000000E+00
  0.00000000E+00  0.00000000E+00  0.00000000E+00
  0.00000000E+00  0.00000000E+00  0.00000000E+00
  0.00000000E+00  0.00000000E+00  0.00000000E+00
  0.00000000E+00  0.00000000E+00  0.00000000E+00
  0.00000000E+00  0.00000000E+00  0.00000000E+00
