Sodilite                                
   1.00000000000000     
     9.1569356566241034    0.0596796028964497    0.0000000000000000
     0.0596796028964497    9.1569356566241034    0.0000000000000000
     0.0000000000000000    0.0000000000000000    9.1574189886879029
   O    Na   Al   Si   Cl   K 
    24     4     6     6     2     4
Direct
  0.1416369461811113  0.4550889089802229  0.1571989052088503
  0.8583630538188883  0.5449110910197770  0.1571989052088503
  0.8567961321468548  0.4528498115163604  0.8534264294804916
  0.1432038678531448  0.5471501884836396  0.8534264294804916
  0.1418059781414778  0.1308514931835804  0.4635643223915247
  0.1625554575657744  0.8459879073315704  0.5548726421381518
  0.8581940218585220  0.8691485068164195  0.4635643223915247
  0.8374445424342258  0.1540120926684298  0.5548726421381518
  0.4567093567025932  0.1500764961883042  0.1457133084825026
  0.5489601163189310  0.1538176216287390  0.8612041910990774
  0.4510398836810690  0.8461823783712611  0.8612041910990774
  0.5432906432974071  0.8499235038116958  0.1457133084825027
  0.9550889089802230  0.6416369461811117  0.6571989052088500
  0.0449110910197771  0.3583630538188887  0.6571989052088500
  0.9528498115163604  0.3567961321468551  0.3534264294804914
  0.0471501884836397  0.6432038678531452  0.3534264294804914
  0.6308514931835805  0.6418059781414780  0.9635643223915249
  0.3459879073315703  0.6625554575657742  0.0548726421381514
  0.3691485068164193  0.3581940218585223  0.9635643223915249
  0.6540120926684297  0.3374445424342257  0.0548726421381514
  0.6500764961883042  0.9567093567025929  0.6457133084825025
  0.6538176216287389  0.0489601163189309  0.3612041910990777
  0.3461823783712609  0.9510398836810690  0.3612041910990777
  0.3499235038116956  0.0432906432974068  0.6457133084825025
  0.8067024408698487  0.1947291944434625  0.8099029309441715
  0.1932975591301511  0.8052708055565378  0.8099029309441715
  0.6947291944434622  0.3067024408698488  0.3099029309441713
  0.3052708055565374  0.6932975591301513  0.3099029309441713
  0.2504392182255154  0.5034922010593146  0.0084435790414978
  0.7495607817744840  0.4965077989406856  0.0084435790414978
 -0.0034922010593144  0.2495607817744843  0.5084435790414983
  0.0034922010593144  0.7504392182255160  0.5084435790414983
  0.5000000000000000 -0.0000000000000000  0.2570002411527788
  0.5000000000000000 -0.0000000000000000  0.7570002411527780
  0.2498547187852003 -0.0058831096029240  0.5074122741714447
  0.7501452812147995  0.0058831096029240  0.5074122741714447
  0.5058831096029243  0.2501452812147997  0.0074122741714451
  0.4941168903970759  0.7498547187852005  0.0074122741714451
 -0.0000000000000000  0.5000000000000000  0.2567163080835876
 -0.0000000000000000  0.5000000000000000  0.7567163080835879
 -0.0000000000000000 -0.0000000000000000 -0.0697381566880440
  0.5000000000000000  0.5000000000000000  0.4302618433119561
  0.1641353746901042  0.1626283603355884  0.1662722207681266
  0.8358646253098956  0.8373716396644123  0.1662722207681266
  0.6626283603355877  0.6641353746901044  0.6662722207681265
  0.3373716396644117  0.3358646253098958  0.6662722207681265
 
  0.00000000E+00  0.00000000E+00  0.00000000E+00
  0.00000000E+00  0.00000000E+00  0.00000000E+00
  0.00000000E+00  0.00000000E+00  0.00000000E+00
  0.00000000E+00  0.00000000E+00  0.00000000E+00
  0.00000000E+00  0.00000000E+00  0.00000000E+00
  0.00000000E+00  0.00000000E+00  0.00000000E+00
  0.00000000E+00  0.00000000E+00  0.00000000E+00
  0.00000000E+00  0.00000000E+00  0.00000000E+00
  0.00000000E+00  0.00000000E+00  0.00000000E+00
  0.00000000E+00  0.00000000E+00  0.00000000E+00
  0.00000000E+00  0.00000000E+00  0.00000000E+00
  0.00000000E+00  0.00000000E+00  0.00000000E+00
  0.00000000E+00  0.00000000E+00  0.00000000E+00
  0.00000000E+00  0.00000000E+00  0.00000000E+00
  0.00000000E+00  0.00000000E+00  0.00000000E+00
  0.00000000E+00  0.00000000E+00  0.00000000E+00
  0.00000000E+00  0.00000000E+00  0.00000000E+00
  0.00000000E+00  0.00000000E+00  0.00000000E+00
  0.00000000E+00  0.00000000E+00  0.00000000E+00
  0.00000000E+00  0.00000000E+00  0.00000000E+00
  0.00000000E+00  0.00000000E+00  0.00000000E+00
  0.00000000E+00  0.00000000E+00  0.00000000E+00
  0.00000000E+00  0.00000000E+00  0.00000000E+00
  0.00000000E+00  0.00000000E+00  0.00000000E+00
  0.00000000E+00  0.00000000E+00  0.00000000E+00
  0.00000000E+00  0.00000000E+00  0.00000000E+00
  0.00000000E+00  0.00000000E+00  0.00000000E+00
  0.00000000E+00  0.00000000E+00  0.00000000E+00
  0.00000000E+00  0.00000000E+00  0.00000000E+00
  0.00000000E+00  0.00000000E+00  0.00000000E+00
  0.00000000E+00  0.00000000E+00  0.00000000E+00
  0.00000000E+00  0.00000000E+00  0.00000000E+00
  0.00000000E+00  0.00000000E+00  0.00000000E+00
  0.00000000E+00  0.00000000E+00  0.00000000E+00
  0.00000000E+00  0.00000000E+00  0.00000000E+00
  0.00000000E+00  0.00000000E+00  0.00000000E+00
  0.00000000E+00  0.00000000E+00  0.00000000E+00
  0.00000000E+00  0.00000000E+00  0.00000000E+00
  0.00000000E+00  0.00000000E+00  0.00000000E+00
  0.00000000E+00  0.00000000E+00  0.00000000E+00
  0.00000000E+00  0.00000000E+00  0.00000000E+00
  0.00000000E+00  0.00000000E+00  0.00000000E+00
  0.00000000E+00  0.00000000E+00  0.00000000E+00
  0.00000000E+00  0.00000000E+00  0.00000000E+00
  0.00000000E+00  0.00000000E+00  0.00000000E+00
  0.00000000E+00  0.00000000E+00  0.00000000E+00
