Sodilite                                
   1.00000000000000     
     9.0978043994294442    0.0116622221659104   -0.0445725687439202
     0.0116739896264782    9.1013269363970775   -0.0111285811351407
    -0.0445828765733615   -0.0111124420518553    9.0998572518387064
   O    Na   Al   Si   Cl   K 
    24     5     6     6     2     3
Direct
  0.1527797847497329  0.4405711373436199  0.1659292804768571
  0.8711918276332725  0.5425237279570944  0.1395881447934788
  0.8433813131551189  0.4420468000140505  0.8386566529705952
  0.1283152484469927  0.5385110682079473  0.8612056303720863
  0.1510104419032998  0.1394429366616537  0.4476887017569336
  0.1481243847195715  0.8548791282673660  0.5461908416121696
  0.8474707808505837  0.8566270990092097  0.4521755018581607
  0.8472016939860414  0.1382522417960149  0.5566951903140162
  0.4450156479704634  0.1459674135815096  0.1424571138456324
  0.5518663299779554  0.1485844656244213  0.8597270711285198
  0.4522099757855542  0.8442331588435521  0.8596655168995999
  0.5479475984235851  0.8449275496264155  0.1429910180940189
  0.9453232996099010  0.6441497655017709  0.6593298209663681
  0.0453069919117168  0.3612982344616453  0.6456879668957526
  0.9425597289118277  0.3512901170829078  0.3466719851208324
  0.0499756868900151  0.6336723102566855  0.3529159892889533
  0.6368177821415522  0.6423354177780137  0.9512113596722749
  0.3512174772228999  0.6519021586967773  0.0527580519022675
  0.3641192944240760  0.3503161940466796  0.9532877881944234
  0.6445813658969067  0.3398635314780094  0.0595576471608658
  0.6537596517871669  0.9430263422150221  0.6469912847141198
  0.6462973194515554  0.0517318978108110  0.3644908378503020
  0.3434301605972440  0.9424141286955902  0.3542527717099453
  0.3509675651954072  0.0424562074280387  0.6381101346738201
  0.1940542086968025  0.1894749790613647  0.1946766346334076
  0.8050634788857968  0.1906835567592660  0.8072718873191858
  0.6855168325216137  0.6837125611572940  0.6863287561670094
  0.6892293292704267  0.3101731052893660  0.3123081007608570
  0.3150882952825281  0.6834287922466806  0.3128170790873888
  0.2478923664893898  0.4935804641309691  0.0068278778921478
  0.7483746604334423  0.4908156674391591 -0.0002713855174391
 -0.0031569950415009  0.2454046299916961  0.4996617290428382
 -0.0035059805573999  0.7442864012502738  0.5022349232858023
  0.4975478973295313 -0.0049130205304693  0.2520999995270182
  0.5005272043428818 -0.0050938587683735  0.7517501746290398
  0.2481856272170607 -0.0054531807953596  0.4975841477247362
  0.7482319858374692 -0.0035490624484089  0.5042522870785361
  0.5009669383377432  0.2453855185894855  0.0037804032172521
  0.4972492308515248  0.7445351773992309  0.0023887345258173
  0.0025685802529469  0.4912092136362282  0.2515413359836468
 -0.0085941498641790  0.4950888181995728  0.7517920532024611
 -0.0013225864721597  0.0760653002935195  0.0015078663727129
  0.5355029801213580  0.5298886794763610  0.4648541418830749
  0.8398623137423031  0.8359030056782421  0.1606102897313955
  0.1583708963344132  0.8370178776185756  0.8401553387058188
  0.3414755343455664  0.3413323419405187  0.6575913224752981
 
  0.00000000E+00  0.00000000E+00  0.00000000E+00
  0.00000000E+00  0.00000000E+00  0.00000000E+00
  0.00000000E+00  0.00000000E+00  0.00000000E+00
  0.00000000E+00  0.00000000E+00  0.00000000E+00
  0.00000000E+00  0.00000000E+00  0.00000000E+00
  0.00000000E+00  0.00000000E+00  0.00000000E+00
  0.00000000E+00  0.00000000E+00  0.00000000E+00
  0.00000000E+00  0.00000000E+00  0.00000000E+00
  0.00000000E+00  0.00000000E+00  0.00000000E+00
  0.00000000E+00  0.00000000E+00  0.00000000E+00
  0.00000000E+00  0.00000000E+00  0.00000000E+00
  0.00000000E+00  0.00000000E+00  0.00000000E+00
  0.00000000E+00  0.00000000E+00  0.00000000E+00
  0.00000000E+00  0.00000000E+00  0.00000000E+00
  0.00000000E+00  0.00000000E+00  0.00000000E+00
  0.00000000E+00  0.00000000E+00  0.00000000E+00
  0.00000000E+00  0.00000000E+00  0.00000000E+00
  0.00000000E+00  0.00000000E+00  0.00000000E+00
  0.00000000E+00  0.00000000E+00  0.00000000E+00
  0.00000000E+00  0.00000000E+00  0.00000000E+00
  0.00000000E+00  0.00000000E+00  0.00000000E+00
  0.00000000E+00  0.00000000E+00  0.00000000E+00
  0.00000000E+00  0.00000000E+00  0.00000000E+00
  0.00000000E+00  0.00000000E+00  0.00000000E+00
  0.00000000E+00  0.00000000E+00  0.00000000E+00
  0.00000000E+00  0.00000000E+00  0.00000000E+00
  0.00000000E+00  0.00000000E+00  0.00000000E+00
  0.00000000E+00  0.00000000E+00  0.00000000E+00
  0.00000000E+00  0.00000000E+00  0.00000000E+00
  0.00000000E+00  0.00000000E+00  0.00000000E+00
  0.00000000E+00  0.00000000E+00  0.00000000E+00
  0.00000000E+00  0.00000000E+00  0.00000000E+00
  0.00000000E+00  0.00000000E+00  0.00000000E+00
  0.00000000E+00  0.00000000E+00  0.00000000E+00
  0.00000000E+00  0.00000000E+00  0.00000000E+00
  0.00000000E+00  0.00000000E+00  0.00000000E+00
  0.00000000E+00  0.00000000E+00  0.00000000E+00
  0.00000000E+00  0.00000000E+00  0.00000000E+00
  0.00000000E+00  0.00000000E+00  0.00000000E+00
  0.00000000E+00  0.00000000E+00  0.00000000E+00
  0.00000000E+00  0.00000000E+00  0.00000000E+00
  0.00000000E+00  0.00000000E+00  0.00000000E+00
  0.00000000E+00  0.00000000E+00  0.00000000E+00
  0.00000000E+00  0.00000000E+00  0.00000000E+00
  0.00000000E+00  0.00000000E+00  0.00000000E+00
  0.00000000E+00  0.00000000E+00  0.00000000E+00
