Sodilite                                
   1.00000000000000     
     9.0332030914882235    0.0002449952172105    0.0002449952172105
     0.0002473819933763    9.0385929104037359   -0.0321349274974246
     0.0002473819933763   -0.0321349274974246    9.0385929104037359
   O    Na   Al   Si   Cl   K 
    24     6     6     6     2     2
Direct
  0.1445868431526034  0.4415235678004388  0.1562566341288226
  0.8615513548311212  0.5484356833263431  0.1443198369775825
  0.8543017859461309  0.4383983681879786  0.8450128421108961
  0.1330431776230352  0.5583926226581901  0.8540249112993724
  0.1419879936934342  0.1360245273113037  0.4429232131632423
  0.1537914056867235  0.8546255664075547  0.5578032613062256
  0.8514549697594072  0.8647090920716407  0.4501537925053879
  0.8427004282330273  0.1451296727764817  0.5621923741338486
  0.4381571407004176  0.1562490167227139  0.1448842685967517
  0.5584393973673928  0.1445742851498189  0.8663302656960753
  0.4389014617524769  0.8454664573503294  0.8525748107123167
  0.5458545351514711  0.8537549547945611  0.1358479094616255
  0.9381571407004174  0.6448842685967519  0.6562490167227141
  0.0584393973673931  0.3663302656960760  0.6445742851498192
  0.9389014617524776  0.3525748107123167  0.3454664573503299
  0.0458545351514709  0.6358479094616254  0.3537549547945614
  0.6445868431526028  0.6562566341288232  0.9415235678004394
  0.3615513548311217  0.6443198369775824  0.0484356833263429
  0.3543017859461308  0.3450128421108963  0.9383983681879793
  0.6330431776230354  0.3540249112993723  0.0583926226581898
  0.6419879936934344  0.9429232131632422  0.6360245273113040
  0.6537914056867229  0.0578032613062250  0.3546255664075550
  0.3514549697594069  0.9501537925053875  0.3647090920716404
  0.3427004282330273  0.0621923741338483  0.6451296727764815
  0.1825926239648873  0.1849581091677818  0.1850796993862586
  0.8112421924349411  0.1872290053257664  0.8133079871240969
  0.1834282650991107  0.8161800508552793  0.8145493623436548
  0.6825926239648870  0.6850796993862588  0.6849581091677821
  0.3112421924349415  0.3133079871240967  0.6872290053257668
  0.6834282650991104  0.3145493623436547  0.3161800508552798
  0.2465513292781170  0.4963328749194265 -0.0009522831254539
  0.7465513292781167  0.4990477168745463 -0.0036671250805735
 -0.0053054075901413  0.2500838052854736  0.5007645973465545
 -0.0027852544086482  0.7499230208585530  0.5038999978295634
  0.4972147455913516  0.0038999978295632  0.2499230208585529
  0.4946945924098587  0.0007645973465548  0.7500838052854741
  0.2467813167470858  0.0010150797790909  0.5030652811659042
  0.7467813167470859  0.0030652811659045  0.5010150797790908
  0.4953951725987677  0.2499716360757089  0.0008986378443637
  0.4973015482194368  0.7500044172292675 -0.0050055282074607
 -0.0026984517805633  0.4949944717925390  0.2500044172292675
 -0.0046048274012324  0.5008986378443642  0.7499716360757089
  0.0344180861874796  0.0396384986205747 -0.0393724427920972
  0.5344180861874803  0.4606275572079028  0.5396384986205750
  0.8456096335717217  0.8459624510883245  0.1528578072298662
  0.3456096335717221  0.6528578072298662  0.3459624510883248
 
  0.00000000E+00  0.00000000E+00  0.00000000E+00
  0.00000000E+00  0.00000000E+00  0.00000000E+00
  0.00000000E+00  0.00000000E+00  0.00000000E+00
  0.00000000E+00  0.00000000E+00  0.00000000E+00
  0.00000000E+00  0.00000000E+00  0.00000000E+00
  0.00000000E+00  0.00000000E+00  0.00000000E+00
  0.00000000E+00  0.00000000E+00  0.00000000E+00
  0.00000000E+00  0.00000000E+00  0.00000000E+00
  0.00000000E+00  0.00000000E+00  0.00000000E+00
  0.00000000E+00  0.00000000E+00  0.00000000E+00
  0.00000000E+00  0.00000000E+00  0.00000000E+00
  0.00000000E+00  0.00000000E+00  0.00000000E+00
  0.00000000E+00  0.00000000E+00  0.00000000E+00
  0.00000000E+00  0.00000000E+00  0.00000000E+00
  0.00000000E+00  0.00000000E+00  0.00000000E+00
  0.00000000E+00  0.00000000E+00  0.00000000E+00
  0.00000000E+00  0.00000000E+00  0.00000000E+00
  0.00000000E+00  0.00000000E+00  0.00000000E+00
  0.00000000E+00  0.00000000E+00  0.00000000E+00
  0.00000000E+00  0.00000000E+00  0.00000000E+00
  0.00000000E+00  0.00000000E+00  0.00000000E+00
  0.00000000E+00  0.00000000E+00  0.00000000E+00
  0.00000000E+00  0.00000000E+00  0.00000000E+00
  0.00000000E+00  0.00000000E+00  0.00000000E+00
  0.00000000E+00  0.00000000E+00  0.00000000E+00
  0.00000000E+00  0.00000000E+00  0.00000000E+00
  0.00000000E+00  0.00000000E+00  0.00000000E+00
  0.00000000E+00  0.00000000E+00  0.00000000E+00
  0.00000000E+00  0.00000000E+00  0.00000000E+00
  0.00000000E+00  0.00000000E+00  0.00000000E+00
  0.00000000E+00  0.00000000E+00  0.00000000E+00
  0.00000000E+00  0.00000000E+00  0.00000000E+00
  0.00000000E+00  0.00000000E+00  0.00000000E+00
  0.00000000E+00  0.00000000E+00  0.00000000E+00
  0.00000000E+00  0.00000000E+00  0.00000000E+00
  0.00000000E+00  0.00000000E+00  0.00000000E+00
  0.00000000E+00  0.00000000E+00  0.00000000E+00
  0.00000000E+00  0.00000000E+00  0.00000000E+00
  0.00000000E+00  0.00000000E+00  0.00000000E+00
  0.00000000E+00  0.00000000E+00  0.00000000E+00
  0.00000000E+00  0.00000000E+00  0.00000000E+00
  0.00000000E+00  0.00000000E+00  0.00000000E+00
  0.00000000E+00  0.00000000E+00  0.00000000E+00
  0.00000000E+00  0.00000000E+00  0.00000000E+00
  0.00000000E+00  0.00000000E+00  0.00000000E+00
  0.00000000E+00  0.00000000E+00  0.00000000E+00
