Sodilite                                
   1.00000000000000     
     9.1591471086324248   -0.0042537441796504    0.0257736506090719
    -0.0042537441796504    9.1591471086324248    0.0257736506090719
     0.0257704754006556    0.0257704754006556    9.1513548234160886
   O    Na   Al   Si   Cl   K 
    24     4     6     6     2     4
Direct
  0.1319465663870186  0.4611414070448174  0.1390769326676617
  0.8486560822066469  0.5519764056185056  0.1648856551032948
  0.8713661708802878  0.4647735250659807  0.8574222824185914
  0.1562586401917110  0.5546389307651929  0.8383557006446815
  0.1542227160612269  0.1424958876431341  0.4558560259025730
  0.1544506559941413  0.8606596301129313  0.5543447328648845
  0.8509217273793658  0.8577803250737337  0.4530544538878565
  0.8513564079169788  0.1457147175938098  0.5379053607014899
  0.4596767774739405  0.1568072854117978  0.1446954349076706
  0.5419426910941885  0.1525357410099155  0.8585038245498023
  0.4507815903168395  0.8479733827484105  0.8571693279352077
  0.5514811446837969  0.8525876663810777  0.1406791069806480
  0.9611414070448170  0.6319465663870187  0.6390769326676619
  0.0519764056185055  0.3486560822066465  0.6648856551032949
  0.9647735250659812  0.3713661708802876  0.3574222824185914
  0.0546389307651924  0.6562586401917117  0.3383557006446820
  0.6424958876431341  0.6542227160612269  0.9558560259025726
  0.3606596301129313  0.6544506559941409  0.0543447328648843
  0.3577803250737336  0.3509217273793654  0.9530544538878559
  0.6457147175938098  0.3513564079169793  0.0379053607014903
  0.6568072854117980  0.9596767774739402  0.6446954349076706
  0.6525357410099163  0.0419426910941884  0.3585038245498017
  0.3479733827484107  0.9507815903168393  0.3571693279352081
  0.3525876663810780  0.0514811446837970  0.6406791069806486
  0.8083744099688258  0.8083024873784059  0.1936799263541555
  0.1977255418891755  0.8042573944175210  0.8036897817386041
  0.3083024873784053  0.3083744099688260  0.6936799263541558
  0.3042573944175205  0.6977255418891761  0.3036897817386046
  0.2528354938716237  0.5063987265722288 -0.0025961197751835
  0.7542778230474260  0.5065896144712265  0.0032790481636634
  0.0065896144712266  0.2542778230474257  0.5032790481636631
  0.0063987265722289  0.7528354938716235  0.4974038802248165
  0.5014849023117178  0.0016144558300825  0.2502430382633790
  0.5016144558300826  0.0014849023117177  0.7502430382633790
  0.2528228935756894  0.0014592037568938  0.5014896728111022
  0.7537746567962854  0.0014756368156496  0.4991892922544716
  0.5014756368156496  0.2537746567962855 -0.0008107077455281
  0.5014592037568936  0.7528228935756897  0.0014896728111026
  0.0014783533438003  0.5102696560074261  0.2501337120917700
  0.0102696560074260  0.5014783533438002  0.7501337120917699
  0.0048340568097459 -0.0724224414869013 -0.0011248856150043
  0.4275775585130989  0.5048340568097458  0.4988751143849958
  0.1640182425802475  0.1666130643174923  0.1634270763283507
  0.8378222402928193  0.1638475123771708  0.8366406188203289
  0.6666130643174923  0.6640182425802477  0.6634270763283511
  0.6638475123771707  0.3378222402928195  0.3366406188203290
 
  0.00000000E+00  0.00000000E+00  0.00000000E+00
  0.00000000E+00  0.00000000E+00  0.00000000E+00
  0.00000000E+00  0.00000000E+00  0.00000000E+00
  0.00000000E+00  0.00000000E+00  0.00000000E+00
  0.00000000E+00  0.00000000E+00  0.00000000E+00
  0.00000000E+00  0.00000000E+00  0.00000000E+00
  0.00000000E+00  0.00000000E+00  0.00000000E+00
  0.00000000E+00  0.00000000E+00  0.00000000E+00
  0.00000000E+00  0.00000000E+00  0.00000000E+00
  0.00000000E+00  0.00000000E+00  0.00000000E+00
  0.00000000E+00  0.00000000E+00  0.00000000E+00
  0.00000000E+00  0.00000000E+00  0.00000000E+00
  0.00000000E+00  0.00000000E+00  0.00000000E+00
  0.00000000E+00  0.00000000E+00  0.00000000E+00
  0.00000000E+00  0.00000000E+00  0.00000000E+00
  0.00000000E+00  0.00000000E+00  0.00000000E+00
  0.00000000E+00  0.00000000E+00  0.00000000E+00
  0.00000000E+00  0.00000000E+00  0.00000000E+00
  0.00000000E+00  0.00000000E+00  0.00000000E+00
  0.00000000E+00  0.00000000E+00  0.00000000E+00
  0.00000000E+00  0.00000000E+00  0.00000000E+00
  0.00000000E+00  0.00000000E+00  0.00000000E+00
  0.00000000E+00  0.00000000E+00  0.00000000E+00
  0.00000000E+00  0.00000000E+00  0.00000000E+00
  0.00000000E+00  0.00000000E+00  0.00000000E+00
  0.00000000E+00  0.00000000E+00  0.00000000E+00
  0.00000000E+00  0.00000000E+00  0.00000000E+00
  0.00000000E+00  0.00000000E+00  0.00000000E+00
  0.00000000E+00  0.00000000E+00  0.00000000E+00
  0.00000000E+00  0.00000000E+00  0.00000000E+00
  0.00000000E+00  0.00000000E+00  0.00000000E+00
  0.00000000E+00  0.00000000E+00  0.00000000E+00
  0.00000000E+00  0.00000000E+00  0.00000000E+00
  0.00000000E+00  0.00000000E+00  0.00000000E+00
  0.00000000E+00  0.00000000E+00  0.00000000E+00
  0.00000000E+00  0.00000000E+00  0.00000000E+00
  0.00000000E+00  0.00000000E+00  0.00000000E+00
  0.00000000E+00  0.00000000E+00  0.00000000E+00
  0.00000000E+00  0.00000000E+00  0.00000000E+00
  0.00000000E+00  0.00000000E+00  0.00000000E+00
  0.00000000E+00  0.00000000E+00  0.00000000E+00
  0.00000000E+00  0.00000000E+00  0.00000000E+00
  0.00000000E+00  0.00000000E+00  0.00000000E+00
  0.00000000E+00  0.00000000E+00  0.00000000E+00
  0.00000000E+00  0.00000000E+00  0.00000000E+00
  0.00000000E+00  0.00000000E+00  0.00000000E+00
