Sodilite                                
   1.00000000000000     
     9.1734364340466339    0.0258741443247170    0.0032079271287006
     0.0258773998719340    9.1823062729444764   -0.0244246665815163
     0.0032108052657058   -0.0244247999090327    9.1744879374617163
   O    Na   Al   Si   Cl   K 
    24     4     6     6     2     4
Direct
  0.1470535367595724  0.4502696895421386  0.1625262440554535
  0.8635644277490802  0.5402209903763279  0.1463454364831248
  0.8484944421399933  0.4521575075932553  0.8446147226307836
  0.1354616689936238  0.5415188370823127  0.8553492061503063
  0.1461448294181788  0.1395209465458260  0.4547460031734954
  0.1533850326445031  0.8531307781867804  0.5456514630724227
  0.8470693655163397  0.8612656403997331  0.4629199074181710
  0.8432494541923746  0.1450555389198022  0.5534133036631403
  0.4473741498932176  0.1540486579448094  0.1463867994181676
  0.5462645466484159  0.1506151702108815  0.8632206764733812
  0.4533993106240674  0.8440766049822995  0.8547880013078529
  0.5360772892950211  0.8519424244155708  0.1420005721240755
  0.9569304043723397  0.6495258638090227  0.6627344316971899
  0.0384797939814210  0.3645519101151469  0.6470218517391312
  0.9491895551259749  0.3486492597311084  0.3438021572572234
  0.0344622081547067  0.6348790722032290  0.3567032458675765
  0.6339524807945762  0.6460035576074320  0.9652540154849476
  0.3462427865758506  0.6583920194297266  0.0417569799384641
  0.3643686037859912  0.3557493947073332  0.9613553143791396
  0.6477111903519078  0.3396998962316060  0.0523315563348250
  0.6394873606953705  0.9625911209049656  0.6363583666185350
  0.6588003896275918  0.0484686263276638  0.3510590269076450
  0.3533287975411744  0.9612013478024813  0.3682097480505781
  0.3365481602507715  0.0427973798213549  0.6532965811337436
  0.1913485355506689  0.1922601342214483  0.1916784660709684
  0.8095509837198198  0.1937729749568856  0.8089727524891545
  0.1871039261796876  0.8178827210499746  0.8127553392692857
  0.7046078770388711  0.2948076659829834  0.2965090003519980
  0.2462842253481446  0.4999436264632879  0.0058004743610714
  0.7468157170234578  0.4956346088129631  0.0029155728614470
 -0.0055913270909297  0.2492201387083654  0.5013767693874801
 -0.0033622191860996  0.7499942345245160  0.5059510984443774
  0.4986812760594269  0.0038874602166667  0.2531584320943354
  0.4939609827182254  0.0015680638808157  0.7539165113359829
  0.2465209974192577  0.0000561973593840  0.5055642174103463
  0.7467296375088357  0.0043412333332121  0.5014060707446830
  0.5002626670962743  0.2498431001526406  0.0060337138830970
  0.4928783214590011  0.7502402383169590  0.0019891627470489
 -0.0022303905909382  0.4941780202138631  0.2530127776732526
 -0.0055316673978505  0.5010977485632393  0.7533545730439740
  0.0285226953714178  0.0354196857022303 -0.0282009982674642
  0.5375887222403459  0.4589354423960967  0.4625944998721044
  0.8371092046897597  0.8371701851082990  0.1621774794823549
  0.6659104848624668  0.6714224541952094  0.6711467816273282
  0.3273388083254158  0.3317672975191163  0.6729440153396115
  0.3284607565226782  0.6702245334310366  0.3330976783981903
 
  0.00000000E+00  0.00000000E+00  0.00000000E+00
  0.00000000E+00  0.00000000E+00  0.00000000E+00
  0.00000000E+00  0.00000000E+00  0.00000000E+00
  0.00000000E+00  0.00000000E+00  0.00000000E+00
  0.00000000E+00  0.00000000E+00  0.00000000E+00
  0.00000000E+00  0.00000000E+00  0.00000000E+00
  0.00000000E+00  0.00000000E+00  0.00000000E+00
  0.00000000E+00  0.00000000E+00  0.00000000E+00
  0.00000000E+00  0.00000000E+00  0.00000000E+00
  0.00000000E+00  0.00000000E+00  0.00000000E+00
  0.00000000E+00  0.00000000E+00  0.00000000E+00
  0.00000000E+00  0.00000000E+00  0.00000000E+00
  0.00000000E+00  0.00000000E+00  0.00000000E+00
  0.00000000E+00  0.00000000E+00  0.00000000E+00
  0.00000000E+00  0.00000000E+00  0.00000000E+00
  0.00000000E+00  0.00000000E+00  0.00000000E+00
  0.00000000E+00  0.00000000E+00  0.00000000E+00
  0.00000000E+00  0.00000000E+00  0.00000000E+00
  0.00000000E+00  0.00000000E+00  0.00000000E+00
  0.00000000E+00  0.00000000E+00  0.00000000E+00
  0.00000000E+00  0.00000000E+00  0.00000000E+00
  0.00000000E+00  0.00000000E+00  0.00000000E+00
  0.00000000E+00  0.00000000E+00  0.00000000E+00
  0.00000000E+00  0.00000000E+00  0.00000000E+00
  0.00000000E+00  0.00000000E+00  0.00000000E+00
  0.00000000E+00  0.00000000E+00  0.00000000E+00
  0.00000000E+00  0.00000000E+00  0.00000000E+00
  0.00000000E+00  0.00000000E+00  0.00000000E+00
  0.00000000E+00  0.00000000E+00  0.00000000E+00
  0.00000000E+00  0.00000000E+00  0.00000000E+00
  0.00000000E+00  0.00000000E+00  0.00000000E+00
  0.00000000E+00  0.00000000E+00  0.00000000E+00
  0.00000000E+00  0.00000000E+00  0.00000000E+00
  0.00000000E+00  0.00000000E+00  0.00000000E+00
  0.00000000E+00  0.00000000E+00  0.00000000E+00
  0.00000000E+00  0.00000000E+00  0.00000000E+00
  0.00000000E+00  0.00000000E+00  0.00000000E+00
  0.00000000E+00  0.00000000E+00  0.00000000E+00
  0.00000000E+00  0.00000000E+00  0.00000000E+00
  0.00000000E+00  0.00000000E+00  0.00000000E+00
  0.00000000E+00  0.00000000E+00  0.00000000E+00
  0.00000000E+00  0.00000000E+00  0.00000000E+00
  0.00000000E+00  0.00000000E+00  0.00000000E+00
  0.00000000E+00  0.00000000E+00  0.00000000E+00
  0.00000000E+00  0.00000000E+00  0.00000000E+00
  0.00000000E+00  0.00000000E+00  0.00000000E+00
