Sodilite                                
   1.00000000000000     
     9.1823120848642130   -0.0244201330864739   -0.0258734769479818
    -0.0244202663526800    9.1744828611039555   -0.0032092159469461
    -0.0258702575289571   -0.0032063536927414    9.1734275328717274
   O    Na   Al   Si   Cl   K 
    24     4     6     6     2     4
Direct
  0.1468686658905746  0.4543486898032219  0.1533847351793750
  0.8604789358806255  0.5452544290219725  0.1461449615247114
  0.8549449896381167  0.4465866651909060  0.8432496239642661
  0.1387346111189086  0.5370801939535653  0.8470689205846419
  0.1559235753312418  0.1452120678892596  0.4533990644407948
  0.1480576201850350  0.8579993007224481  0.5360771505135692
  0.8459514176475340  0.8536133130764523  0.4473745783915528
  0.8493845987326342  0.1367794440663994  0.5462646729390742
  0.4584813732372424  0.1446501245690965  0.1354610122055037
  0.5478426929264032  0.1553857237390040  0.8484938832858585
  0.4597789757292276  0.8536553661748506  0.8635655069004811
  0.5497306833645990  0.8374725417683268  0.1470543081432335
  0.9515310412570639  0.6489414680674974  0.6588008772357253
  0.0374086202766667  0.3636419884880331  0.6394866712080047
  0.9572022299619909  0.3467028274941488  0.3365472344989659
  0.0387985855302216  0.6317896855243516  0.3533294530219256
  0.6513503104279421  0.6561976987699812  0.9491887414562291
  0.3651210227049372  0.6432963556172367  0.0344623752082186
  0.3504743295998438  0.3372651968424555  0.9569305072879281
  0.6354482052908298  0.3529781489810089  0.0384801827665376
  0.6602999742259775  0.9476680146550575  0.6477110614488114
  0.6442508151857613  0.0386446433666339  0.3643683261143734
  0.3416078458382956  0.9582433176271228  0.3462425631192952
  0.3539962817221404  0.0347461562702853  0.6339524551739033
  0.1821181400481904  0.1872444231496593  0.1871032784354363
  0.8077391206943041  0.8083207185006274  0.1913493055287154
  0.8062263835035303  0.1910276181966727  0.8095501730954940
  0.7051932543079645  0.7034914404158696  0.7046078934367709
  0.2500057833353571  0.4940487015885843 -0.0033624234045524
  0.7507798908237968  0.4986234025019936 -0.0055913036783096
 -0.0015682217134375  0.2460833724130780  0.4939605550006320
 -0.0038875739750730  0.7468416723635848  0.4986814474152136
  0.5000567456532267 -0.0058008098370775  0.2462840896198324
  0.5043654244460691 -0.0029154471072312  0.7468157221099141
  0.2497599151606201 -0.0019891887179950  0.4928783771391166
  0.7501568004692800 -0.0060334978010531  0.5002626679803737
  0.4989026913437535  0.2466456063443229 -0.0055319282704353
  0.5058219522267077  0.7469869320880060 -0.0022300726769663
 -0.0000566074650600  0.4944357102479652  0.2465208523108923
 -0.0043410859772239  0.4985940681775092  0.7467296614092263
 -0.0354192279915084  0.0282011493984614  0.0285228958000382
  0.5410648294466324  0.5374061997177252  0.5375893334907544
  0.1628296946259845  0.8378229212786722  0.8371100060681943
  0.3285773428312321  0.3288535322014308  0.6659098195774436
  0.6682322955179631  0.3270563189314714  0.3273395904645802
  0.3297750509838763  0.6669017942684071  0.3284611925346516
 
  0.00000000E+00  0.00000000E+00  0.00000000E+00
  0.00000000E+00  0.00000000E+00  0.00000000E+00
  0.00000000E+00  0.00000000E+00  0.00000000E+00
  0.00000000E+00  0.00000000E+00  0.00000000E+00
  0.00000000E+00  0.00000000E+00  0.00000000E+00
  0.00000000E+00  0.00000000E+00  0.00000000E+00
  0.00000000E+00  0.00000000E+00  0.00000000E+00
  0.00000000E+00  0.00000000E+00  0.00000000E+00
  0.00000000E+00  0.00000000E+00  0.00000000E+00
  0.00000000E+00  0.00000000E+00  0.00000000E+00
  0.00000000E+00  0.00000000E+00  0.00000000E+00
  0.00000000E+00  0.00000000E+00  0.00000000E+00
  0.00000000E+00  0.00000000E+00  0.00000000E+00
  0.00000000E+00  0.00000000E+00  0.00000000E+00
  0.00000000E+00  0.00000000E+00  0.00000000E+00
  0.00000000E+00  0.00000000E+00  0.00000000E+00
  0.00000000E+00  0.00000000E+00  0.00000000E+00
  0.00000000E+00  0.00000000E+00  0.00000000E+00
  0.00000000E+00  0.00000000E+00  0.00000000E+00
  0.00000000E+00  0.00000000E+00  0.00000000E+00
  0.00000000E+00  0.00000000E+00  0.00000000E+00
  0.00000000E+00  0.00000000E+00  0.00000000E+00
  0.00000000E+00  0.00000000E+00  0.00000000E+00
  0.00000000E+00  0.00000000E+00  0.00000000E+00
  0.00000000E+00  0.00000000E+00  0.00000000E+00
  0.00000000E+00  0.00000000E+00  0.00000000E+00
  0.00000000E+00  0.00000000E+00  0.00000000E+00
  0.00000000E+00  0.00000000E+00  0.00000000E+00
  0.00000000E+00  0.00000000E+00  0.00000000E+00
  0.00000000E+00  0.00000000E+00  0.00000000E+00
  0.00000000E+00  0.00000000E+00  0.00000000E+00
  0.00000000E+00  0.00000000E+00  0.00000000E+00
  0.00000000E+00  0.00000000E+00  0.00000000E+00
  0.00000000E+00  0.00000000E+00  0.00000000E+00
  0.00000000E+00  0.00000000E+00  0.00000000E+00
  0.00000000E+00  0.00000000E+00  0.00000000E+00
  0.00000000E+00  0.00000000E+00  0.00000000E+00
  0.00000000E+00  0.00000000E+00  0.00000000E+00
  0.00000000E+00  0.00000000E+00  0.00000000E+00
  0.00000000E+00  0.00000000E+00  0.00000000E+00
  0.00000000E+00  0.00000000E+00  0.00000000E+00
  0.00000000E+00  0.00000000E+00  0.00000000E+00
  0.00000000E+00  0.00000000E+00  0.00000000E+00
  0.00000000E+00  0.00000000E+00  0.00000000E+00
  0.00000000E+00  0.00000000E+00  0.00000000E+00
  0.00000000E+00  0.00000000E+00  0.00000000E+00
