Sodilite                                
   1.00000000000000     
     9.2312340337512602    0.0063089074512971    0.0058072369460750
     0.0062893569369246    9.2107292519067361    0.0129888399304956
     0.0057964047050748    0.0129916496776106    9.2119678846448885
   O    Na   Al   Si   Cl   K 
    24     3     6     6     2     5
Direct
  0.1382221418260958  0.4646023647782067  0.1462771620342754
  0.8522513743107045  0.5360809493363341  0.1617271903790786
  0.8652600233825354  0.4685905104815774  0.8537404321147554
  0.1512443351661766  0.5485906726764223  0.8430654282959004
  0.1467845664298254  0.1357369464773522  0.4635442898864989
  0.1610211533237841  0.8521371133738798  0.5499253778875356
  0.8551582253505150  0.8626802900522956  0.4694518815359699
  0.8431087993698546  0.1521276005144398  0.5348771998327966
  0.4636591437361876  0.1635609571668944  0.1529347746531770
  0.5346939108383996  0.1447305027240323  0.8663588512351041
  0.4542199672424783  0.8389007184001517  0.8493317353812332
  0.5344147726920593  0.8590821437806802  0.1350617098399203
  0.9646589764376929  0.6303277068386886  0.6401715074584575
  0.0469868240556167  0.3466903579480701  0.6673986380390496
  0.9712875824446980  0.3692223287286322  0.3598586197672659
  0.0459124204134499  0.6571779973145208  0.3378194846873308
  0.6446262084045448  0.6571882211552312  0.9655877935392958
  0.3601236785092978  0.6514292161172300  0.0489497623261493
  0.3549331751283002  0.3474657609660022  0.9561358536159622
  0.6428511575870616  0.3506665254388319  0.0318153882952677
  0.6545943544110455  0.9657418287726954  0.6474246098493913
  0.6524544113868813  0.0327025675518074  0.3588464139201681
  0.3450216565838262  0.9559430819039234  0.3572526315942021
  0.3513255018858774  0.0482395100119810  0.6411384197407349
  0.2077215635521393  0.7924649516357520  0.7934334478284856
  0.3019536897546788  0.3025677842347534  0.6979959825742228
  0.3008767828403173  0.6970951846462257  0.3028400288576157
  0.2517740463448632  0.5032440109419668 -0.0008884998605836
  0.7520081978642726  0.5039609089242032  0.0027656905794909
  0.0032732979575722  0.2522762165524584  0.5065116326720803
  0.0068912849254225  0.7514456908494994  0.5004464193980824
  0.4979275524488236  0.0033621589110904  0.2522824509358909
  0.4983505363329800 -0.0012456700003079  0.7516368022640711
  0.2512993841740161 -0.0015312611609396  0.5033355645696973
  0.7517035391075534  0.0030940181524043  0.5031826699104153
  0.4986420264582161  0.2521064426651494  0.0020994914824956
  0.4981349134510588  0.7518442696087515 -0.0003339579675001
  0.0027360434320414  0.5067135061766328  0.2520357817219093
  0.0072168481131348  0.4995071668285207  0.7514662974149534
  0.0419682055141123 -0.0383629713074339 -0.0381400267667453
  0.4301723728667035  0.5020338282235151  0.5022797036529468
  0.1712332463855954  0.1737458113970959  0.1733526068455050
  0.8278557495329851  0.8316290926344816  0.1720757779801965
  0.8282531181767668  0.1715864732803487  0.8307471539201156
  0.6690272837640457  0.6676922653874969  0.6676823441551969
  0.6661659560857920  0.3351542489084550  0.3344974819219386
 
  0.00000000E+00  0.00000000E+00  0.00000000E+00
  0.00000000E+00  0.00000000E+00  0.00000000E+00
  0.00000000E+00  0.00000000E+00  0.00000000E+00
  0.00000000E+00  0.00000000E+00  0.00000000E+00
  0.00000000E+00  0.00000000E+00  0.00000000E+00
  0.00000000E+00  0.00000000E+00  0.00000000E+00
  0.00000000E+00  0.00000000E+00  0.00000000E+00
  0.00000000E+00  0.00000000E+00  0.00000000E+00
  0.00000000E+00  0.00000000E+00  0.00000000E+00
  0.00000000E+00  0.00000000E+00  0.00000000E+00
  0.00000000E+00  0.00000000E+00  0.00000000E+00
  0.00000000E+00  0.00000000E+00  0.00000000E+00
  0.00000000E+00  0.00000000E+00  0.00000000E+00
  0.00000000E+00  0.00000000E+00  0.00000000E+00
  0.00000000E+00  0.00000000E+00  0.00000000E+00
  0.00000000E+00  0.00000000E+00  0.00000000E+00
  0.00000000E+00  0.00000000E+00  0.00000000E+00
  0.00000000E+00  0.00000000E+00  0.00000000E+00
  0.00000000E+00  0.00000000E+00  0.00000000E+00
  0.00000000E+00  0.00000000E+00  0.00000000E+00
  0.00000000E+00  0.00000000E+00  0.00000000E+00
  0.00000000E+00  0.00000000E+00  0.00000000E+00
  0.00000000E+00  0.00000000E+00  0.00000000E+00
  0.00000000E+00  0.00000000E+00  0.00000000E+00
  0.00000000E+00  0.00000000E+00  0.00000000E+00
  0.00000000E+00  0.00000000E+00  0.00000000E+00
  0.00000000E+00  0.00000000E+00  0.00000000E+00
  0.00000000E+00  0.00000000E+00  0.00000000E+00
  0.00000000E+00  0.00000000E+00  0.00000000E+00
  0.00000000E+00  0.00000000E+00  0.00000000E+00
  0.00000000E+00  0.00000000E+00  0.00000000E+00
  0.00000000E+00  0.00000000E+00  0.00000000E+00
  0.00000000E+00  0.00000000E+00  0.00000000E+00
  0.00000000E+00  0.00000000E+00  0.00000000E+00
  0.00000000E+00  0.00000000E+00  0.00000000E+00
  0.00000000E+00  0.00000000E+00  0.00000000E+00
  0.00000000E+00  0.00000000E+00  0.00000000E+00
  0.00000000E+00  0.00000000E+00  0.00000000E+00
  0.00000000E+00  0.00000000E+00  0.00000000E+00
  0.00000000E+00  0.00000000E+00  0.00000000E+00
  0.00000000E+00  0.00000000E+00  0.00000000E+00
  0.00000000E+00  0.00000000E+00  0.00000000E+00
  0.00000000E+00  0.00000000E+00  0.00000000E+00
  0.00000000E+00  0.00000000E+00  0.00000000E+00
  0.00000000E+00  0.00000000E+00  0.00000000E+00
  0.00000000E+00  0.00000000E+00  0.00000000E+00
