Sodilite                                
   1.00000000000000     
     9.1327342238855174    0.0136365519797982   -0.0136365505703437
     0.0136365505703437    9.1327342238855174    0.0136365519797982
    -0.0136365519797982    0.0136365505703437    9.1327342238855174
   O    Na   Al   Si   Cl   K 
    24     5     6     6     2     3
Direct
  0.1399704115147422  0.4457688775632961  0.1502677836470984
  0.8580354352278555  0.5505141722628929  0.1558978551177841
  0.8590670110221887  0.4526534208706035  0.8500641605508208
  0.1448854160884832  0.5496082367032845  0.8490391432819756
  0.1558978551177841  0.1419645647721444  0.4494858277371072
  0.1502677836470984  0.8600295884852582  0.5542311224367040
  0.8490391432819756  0.8551145839115167  0.4503917632967155
  0.8500641605508208  0.1409329889778113  0.5473465791293965
  0.4503917632967155  0.1509608567180241  0.1448854160884832
  0.5473465791293965  0.1499358394491789  0.8590670110221887
  0.4494858277371072  0.8441021448822159  0.8580354352278555
  0.5542311224367040  0.8497322163529016  0.1399704115147422
  0.9592711559244719  0.6335199464229427  0.6451430020260084
  0.0461763374809292  0.3483588769210674  0.6613341648702682
  0.9591555145122064  0.3656665406777567  0.3581492620532833
  0.0539972472944245  0.6491015011081577  0.3415474533293431
  0.6343334593222429  0.6418507379467169  0.9591555145122064
  0.3508984988918423  0.6584525466706572  0.0539972472944245
  0.3664800535770571  0.3548569979739918  0.9592711559244719
  0.6516411230789326  0.3386658351297324  0.0461763374809292
  0.6613341648702682  0.9538236625190709  0.6516411230789326
  0.6451430020260084  0.0407288440755286  0.3664800535770571
  0.3415474533293431  0.9460027527055750  0.3508984988918423
  0.3581492620532833  0.0408444854877936  0.6343334593222429
  0.1876175100673612  0.1855334267359499  0.1866330452600598
  0.8144665732640504  0.8133669547399401  0.1876175100673612
  0.8198590397742993  0.1801409602257011  0.8198590397742993
  0.1866330452600598  0.8123824899326385  0.8144665732640504
  0.2939515355844748  0.7060484644155248  0.2939515355844748
  0.2510053228890469  0.5012864017012434  0.0037034153121616
  0.7521903269432927  0.4966091204326484  0.0038779709151015
  0.0038779709151015  0.2478096730567072  0.5033908795673518
  0.0037034153121616  0.7489946771109531  0.4987135982987564
  0.4987135982987564 -0.0037034153121616  0.2510053228890469
  0.5033908795673518 -0.0038779709151015  0.7521903269432927
  0.2515771667725642 -0.0033484650086561  0.4979220893863998
  0.7520255718866455 -0.0030157265306797  0.5036106619794795
  0.5036106619794795  0.2479744281133548  0.0030157265306797
  0.4979220893863998  0.7484228332274360  0.0033484650086561
  0.0033484650086561  0.5020779106136003  0.2515771667725642
  0.0030157265306797  0.4963893380205209  0.7520255718866455
  0.0027245942904283 -0.0027245942904283  0.0027245942904283
  0.4584836922032122  0.5415163077967873  0.4584836922032122
  0.6694643308020857  0.6640973210002715  0.6697060228522854
  0.3359026789997286  0.3302939771477156  0.6694643308020857
  0.6697060228522854  0.3305356691979150  0.3359026789997286
 
  0.00000000E+00  0.00000000E+00  0.00000000E+00
  0.00000000E+00  0.00000000E+00  0.00000000E+00
  0.00000000E+00  0.00000000E+00  0.00000000E+00
  0.00000000E+00  0.00000000E+00  0.00000000E+00
  0.00000000E+00  0.00000000E+00  0.00000000E+00
  0.00000000E+00  0.00000000E+00  0.00000000E+00
  0.00000000E+00  0.00000000E+00  0.00000000E+00
  0.00000000E+00  0.00000000E+00  0.00000000E+00
  0.00000000E+00  0.00000000E+00  0.00000000E+00
  0.00000000E+00  0.00000000E+00  0.00000000E+00
  0.00000000E+00  0.00000000E+00  0.00000000E+00
  0.00000000E+00  0.00000000E+00  0.00000000E+00
  0.00000000E+00  0.00000000E+00  0.00000000E+00
  0.00000000E+00  0.00000000E+00  0.00000000E+00
  0.00000000E+00  0.00000000E+00  0.00000000E+00
  0.00000000E+00  0.00000000E+00  0.00000000E+00
  0.00000000E+00  0.00000000E+00  0.00000000E+00
  0.00000000E+00  0.00000000E+00  0.00000000E+00
  0.00000000E+00  0.00000000E+00  0.00000000E+00
  0.00000000E+00  0.00000000E+00  0.00000000E+00
  0.00000000E+00  0.00000000E+00  0.00000000E+00
  0.00000000E+00  0.00000000E+00  0.00000000E+00
  0.00000000E+00  0.00000000E+00  0.00000000E+00
  0.00000000E+00  0.00000000E+00  0.00000000E+00
  0.00000000E+00  0.00000000E+00  0.00000000E+00
  0.00000000E+00  0.00000000E+00  0.00000000E+00
  0.00000000E+00  0.00000000E+00  0.00000000E+00
  0.00000000E+00  0.00000000E+00  0.00000000E+00
  0.00000000E+00  0.00000000E+00  0.00000000E+00
  0.00000000E+00  0.00000000E+00  0.00000000E+00
  0.00000000E+00  0.00000000E+00  0.00000000E+00
  0.00000000E+00  0.00000000E+00  0.00000000E+00
  0.00000000E+00  0.00000000E+00  0.00000000E+00
  0.00000000E+00  0.00000000E+00  0.00000000E+00
  0.00000000E+00  0.00000000E+00  0.00000000E+00
  0.00000000E+00  0.00000000E+00  0.00000000E+00
  0.00000000E+00  0.00000000E+00  0.00000000E+00
  0.00000000E+00  0.00000000E+00  0.00000000E+00
  0.00000000E+00  0.00000000E+00  0.00000000E+00
  0.00000000E+00  0.00000000E+00  0.00000000E+00
  0.00000000E+00  0.00000000E+00  0.00000000E+00
  0.00000000E+00  0.00000000E+00  0.00000000E+00
  0.00000000E+00  0.00000000E+00  0.00000000E+00
  0.00000000E+00  0.00000000E+00  0.00000000E+00
  0.00000000E+00  0.00000000E+00  0.00000000E+00
  0.00000000E+00  0.00000000E+00  0.00000000E+00
