Sodilite                                
   1.00000000000000     
     9.1764612163959907    0.0000000000000000    0.0000000000000000
     0.0000000000000000    9.1413662355052754   -0.0000000006897275
     0.0000000000000000    0.0000000006897275    9.1413662355052754
   O    Na   Al   Si   Cl   K 
    24     4     6     6     2     4
Direct
  0.1424532313573925  0.4473450373807660  0.1504598534893977
  0.8584184691311521  0.5386682068526849  0.1534421957426580
  0.8584184691311521  0.4613317931473150  0.8465578042573420
  0.1424532313573925  0.5526549626192341  0.8495401465106024
  0.1518524346966484  0.1401240321401286  0.4466055678491395
  0.1518524346966484  0.8598759678598712  0.5533944321508605
  0.8485315613877449  0.8555559318632133  0.4618230817465979
  0.8485315613877449  0.1444440681367866  0.5381769182534019
  0.4479865375824847  0.1660036370351571  0.1555467308078691
  0.5375836116168876  0.1376377734357075  0.8713371606192448
  0.4479865375824847  0.8339963629648429  0.8444532691921305
  0.5375836116168876  0.8623622265642922  0.1286628393807557
  0.9624163883831124  0.6286628393807552  0.6376377734357078
  0.0520134624175155  0.3444532691921307  0.6660036370351571
  0.9624163883831124  0.3713371606192444  0.3623622265642926
  0.0520134624175155  0.6555467308078695  0.3339963629648429
  0.6415815308688479  0.6534421957426580  0.9613317931473151
  0.3575467686426078  0.6504598534893977  0.0526549626192343
  0.3575467686426078  0.3495401465106023  0.9473450373807659
  0.6415815308688479  0.3465578042573420  0.0386682068526850
  0.6514684386122551  0.9618230817465981  0.6444440681367867
  0.6514684386122551  0.0381769182534022  0.3555559318632130
  0.3481475653033516  0.9466055678491395  0.3598759678598714
  0.3481475653033516  0.0533944321508606  0.6401240321401288
  0.1967100457994790  0.1971170891343034  0.1964921848590113
  0.1967100457994790  0.8028829108656964  0.8035078151409886
  0.3032899542005210  0.3035078151409885  0.6971170891343036
  0.3032899542005210  0.6964921848590114  0.3028829108656967
  0.2500000000000000  0.5000000000000000  0.0000000000000000
  0.7500000000000000  0.5000000000000000  0.0000000000000000
  0.0048652234260238  0.2501350524118573  0.5035629376679011
  0.0048652234260238  0.7498649475881428  0.4964370623320987
  0.4951347765739763  0.0035629376679013  0.2498649475881428
  0.4951347765739763 -0.0035629376679013  0.7501350524118572
  0.2500000000000000 -0.0000000000000000  0.5000000000000000
  0.7500000000000000 -0.0000000000000000  0.5000000000000000
  0.4955593452281746  0.2498206957933740  0.0031332046324346
  0.4955593452281746  0.7501793042066262 -0.0031332046324346
  0.0044406547718255  0.5031332046324349  0.2501793042066263
  0.0044406547718255  0.4968667953675656  0.7498206957933738
  0.0768911577976742 -0.0000000000000000  0.0000000000000000
  0.4231088422023259  0.5000000000000000  0.5000000000000000
  0.8355369345874979  0.8377522663065137  0.1625071805925928
  0.8355369345874979  0.1622477336934859  0.8374928194074069
  0.6644630654125021  0.6625071805925931  0.6622477336934863
  0.6644630654125021  0.3374928194074072  0.3377522663065141
 
  0.00000000E+00  0.00000000E+00  0.00000000E+00
  0.00000000E+00  0.00000000E+00  0.00000000E+00
  0.00000000E+00  0.00000000E+00  0.00000000E+00
  0.00000000E+00  0.00000000E+00  0.00000000E+00
  0.00000000E+00  0.00000000E+00  0.00000000E+00
  0.00000000E+00  0.00000000E+00  0.00000000E+00
  0.00000000E+00  0.00000000E+00  0.00000000E+00
  0.00000000E+00  0.00000000E+00  0.00000000E+00
  0.00000000E+00  0.00000000E+00  0.00000000E+00
  0.00000000E+00  0.00000000E+00  0.00000000E+00
  0.00000000E+00  0.00000000E+00  0.00000000E+00
  0.00000000E+00  0.00000000E+00  0.00000000E+00
  0.00000000E+00  0.00000000E+00  0.00000000E+00
  0.00000000E+00  0.00000000E+00  0.00000000E+00
  0.00000000E+00  0.00000000E+00  0.00000000E+00
  0.00000000E+00  0.00000000E+00  0.00000000E+00
  0.00000000E+00  0.00000000E+00  0.00000000E+00
  0.00000000E+00  0.00000000E+00  0.00000000E+00
  0.00000000E+00  0.00000000E+00  0.00000000E+00
  0.00000000E+00  0.00000000E+00  0.00000000E+00
  0.00000000E+00  0.00000000E+00  0.00000000E+00
  0.00000000E+00  0.00000000E+00  0.00000000E+00
  0.00000000E+00  0.00000000E+00  0.00000000E+00
  0.00000000E+00  0.00000000E+00  0.00000000E+00
  0.00000000E+00  0.00000000E+00  0.00000000E+00
  0.00000000E+00  0.00000000E+00  0.00000000E+00
  0.00000000E+00  0.00000000E+00  0.00000000E+00
  0.00000000E+00  0.00000000E+00  0.00000000E+00
  0.00000000E+00  0.00000000E+00  0.00000000E+00
  0.00000000E+00  0.00000000E+00  0.00000000E+00
  0.00000000E+00  0.00000000E+00  0.00000000E+00
  0.00000000E+00  0.00000000E+00  0.00000000E+00
  0.00000000E+00  0.00000000E+00  0.00000000E+00
  0.00000000E+00  0.00000000E+00  0.00000000E+00
  0.00000000E+00  0.00000000E+00  0.00000000E+00
  0.00000000E+00  0.00000000E+00  0.00000000E+00
  0.00000000E+00  0.00000000E+00  0.00000000E+00
  0.00000000E+00  0.00000000E+00  0.00000000E+00
  0.00000000E+00  0.00000000E+00  0.00000000E+00
  0.00000000E+00  0.00000000E+00  0.00000000E+00
  0.00000000E+00  0.00000000E+00  0.00000000E+00
  0.00000000E+00  0.00000000E+00  0.00000000E+00
  0.00000000E+00  0.00000000E+00  0.00000000E+00
  0.00000000E+00  0.00000000E+00  0.00000000E+00
  0.00000000E+00  0.00000000E+00  0.00000000E+00
  0.00000000E+00  0.00000000E+00  0.00000000E+00
