Sodilite                                
   1.00000000000000     
     9.2361139147427203   -0.0000000000000000    0.0000000000000000
    -0.0000000000000000    9.2361139147427203   -0.0000000000000000
    -0.0000000000000000   -0.0000000000000000    9.2361139147427203
   O    Na   Al   Si   Cl   K 
    24     4     6     6     2     4
Direct
  0.1435594923758757  0.4652567279215837  0.1528257160126091
  0.8564405076241238  0.5347432720784164  0.1528257160126091
  0.8564405076241239  0.4652567279215837  0.8471742839873907
  0.1435594923758757  0.5347432720784164  0.8471742839873907
  0.1528257160126091  0.1435594923758757  0.4652567279215837
  0.1528257160126091  0.8564405076241239  0.5347432720784164
  0.8471742839873907  0.8564405076241238  0.4652567279215837
  0.8471742839873907  0.1435594923758757  0.5347432720784164
  0.4652567279215837  0.1528257160126091  0.1435594923758757
  0.5347432720784164  0.1528257160126091  0.8564405076241238
  0.4652567279215837  0.8471742839873907  0.8564405076241238
  0.5347432720784164  0.8471742839873907  0.1435594923758757
  0.9585768806376116  0.6432488495767864  0.6528568799180166
  0.0414231193623880  0.3567511504232131  0.6528568799180166
  0.9585768806376116  0.3567511504232131  0.3471431200819838
  0.0414231193623880  0.6432488495767864  0.3471431200819838
  0.6432488495767864  0.6528568799180166  0.9585768806376116
  0.3567511504232131  0.6528568799180166  0.0414231193623880
  0.3567511504232131  0.3471431200819838  0.9585768806376116
  0.6432488495767864  0.3471431200819838  0.0414231193623880
  0.6528568799180166  0.9585768806376116  0.6432488495767864
  0.6528568799180166  0.0414231193623880  0.3567511504232131
  0.3471431200819838  0.9585768806376116  0.3567511504232131
  0.3471431200819838  0.0414231193623880  0.6432488495767864
  0.6897068996066023  0.6897068996066023  0.6897068996066023
  0.3102931003933976  0.3102931003933976  0.6897068996066023
  0.6897068996066023  0.3102931003933976  0.3102931003933976
  0.3102931003933976  0.6897068996066023  0.3102931003933976
  0.2507621376867271  0.5000000000000000 -0.0000000000000000
  0.7492378623132729  0.5000000000000000 -0.0000000000000000
  0.0000000000000000  0.2507621376867271  0.5000000000000000
  0.0000000000000000  0.7492378623132729  0.5000000000000000
  0.5000000000000000 -0.0000000000000000  0.2507621376867271
  0.5000000000000000 -0.0000000000000000  0.7492378623132729
  0.2503325126402618 -0.0000000000000000  0.5000000000000000
  0.7496674873597383 -0.0000000000000000  0.5000000000000000
  0.5000000000000000  0.2503325126402618 -0.0000000000000000
  0.5000000000000000  0.7496674873597383 -0.0000000000000000
  0.0000000000000000  0.5000000000000000  0.2503325126402618
  0.0000000000000000  0.5000000000000000  0.7496674873597383
  0.0000000000000000 -0.0000000000000000 -0.0000000000000000
  0.5000000000000000  0.5000000000000000  0.5000000000000000
  0.1811059514742074  0.1811059514742074  0.1811059514742074
  0.8188940485257927  0.8188940485257927  0.1811059514742074
  0.8188940485257927  0.1811059514742074  0.8188940485257927
  0.1811059514742074  0.8188940485257927  0.8188940485257927
 
  0.00000000E+00  0.00000000E+00  0.00000000E+00
  0.00000000E+00  0.00000000E+00  0.00000000E+00
  0.00000000E+00  0.00000000E+00  0.00000000E+00
  0.00000000E+00  0.00000000E+00  0.00000000E+00
  0.00000000E+00  0.00000000E+00  0.00000000E+00
  0.00000000E+00  0.00000000E+00  0.00000000E+00
  0.00000000E+00  0.00000000E+00  0.00000000E+00
  0.00000000E+00  0.00000000E+00  0.00000000E+00
  0.00000000E+00  0.00000000E+00  0.00000000E+00
  0.00000000E+00  0.00000000E+00  0.00000000E+00
  0.00000000E+00  0.00000000E+00  0.00000000E+00
  0.00000000E+00  0.00000000E+00  0.00000000E+00
  0.00000000E+00  0.00000000E+00  0.00000000E+00
  0.00000000E+00  0.00000000E+00  0.00000000E+00
  0.00000000E+00  0.00000000E+00  0.00000000E+00
  0.00000000E+00  0.00000000E+00  0.00000000E+00
  0.00000000E+00  0.00000000E+00  0.00000000E+00
  0.00000000E+00  0.00000000E+00  0.00000000E+00
  0.00000000E+00  0.00000000E+00  0.00000000E+00
  0.00000000E+00  0.00000000E+00  0.00000000E+00
  0.00000000E+00  0.00000000E+00  0.00000000E+00
  0.00000000E+00  0.00000000E+00  0.00000000E+00
  0.00000000E+00  0.00000000E+00  0.00000000E+00
  0.00000000E+00  0.00000000E+00  0.00000000E+00
  0.00000000E+00  0.00000000E+00  0.00000000E+00
  0.00000000E+00  0.00000000E+00  0.00000000E+00
  0.00000000E+00  0.00000000E+00  0.00000000E+00
  0.00000000E+00  0.00000000E+00  0.00000000E+00
  0.00000000E+00  0.00000000E+00  0.00000000E+00
  0.00000000E+00  0.00000000E+00  0.00000000E+00
  0.00000000E+00  0.00000000E+00  0.00000000E+00
  0.00000000E+00  0.00000000E+00  0.00000000E+00
  0.00000000E+00  0.00000000E+00  0.00000000E+00
  0.00000000E+00  0.00000000E+00  0.00000000E+00
  0.00000000E+00  0.00000000E+00  0.00000000E+00
  0.00000000E+00  0.00000000E+00  0.00000000E+00
  0.00000000E+00  0.00000000E+00  0.00000000E+00
  0.00000000E+00  0.00000000E+00  0.00000000E+00
  0.00000000E+00  0.00000000E+00  0.00000000E+00
  0.00000000E+00  0.00000000E+00  0.00000000E+00
  0.00000000E+00  0.00000000E+00  0.00000000E+00
  0.00000000E+00  0.00000000E+00  0.00000000E+00
  0.00000000E+00  0.00000000E+00  0.00000000E+00
  0.00000000E+00  0.00000000E+00  0.00000000E+00
  0.00000000E+00  0.00000000E+00  0.00000000E+00
  0.00000000E+00  0.00000000E+00  0.00000000E+00
