Sodilite                                
   1.00000000000000     
     9.2111985931677101   -0.0061902812252485    0.0130164627413433
    -0.0062097457364519    9.2317173740437486   -0.0057496330979766
     0.0130192336160386   -0.0057387057131692    9.2124613515709211
   O    Na   Al   Si   Cl   K 
    24     3     6     6     2     5
Direct
  0.1307725396211954  0.4712724699802357  0.1401437969019228
  0.8428256109269392  0.5459054776199564  0.1621863821930411
  0.8696723980818911  0.4646535128998939  0.8598190314134582
  0.1533099825414130  0.5469859908195059  0.8326019056273340
  0.1493470233537574  0.1428519159606303  0.4681740219999945
  0.1525393215562513  0.8549388265205859  0.5438592637135752
  0.8485708238931663  0.8601230229454536  0.4510545325202124
  0.8427973335979937  0.1446223651532451  0.5344237778911380
  0.4672840699097797  0.1524582890853126  0.1411539601067953
  0.5342684790473873  0.1546082866497104  0.8525861445542599
  0.4517661763033756  0.8513178844739497  0.8588598346122683
  0.5440538523023470  0.8450115069001376  0.1427474310178359
  0.9514216476943197  0.6512419238888701  0.6569343462668894
  0.0314170908506339  0.3652557661598315  0.6462741557231052
  0.9639127542986023  0.3522484530986225  0.3382788231327322
  0.0353959861886479  0.6382200297980998  0.3537073051076234
  0.6478599787775641  0.6610178748387494  0.9500834047494680
  0.3642523660814755  0.6468043357166385  0.0364547618151812
  0.3478726148933851  0.3431097383991126  0.9651183849520779
  0.6373224981554477  0.3551530766703542  0.0305546958083106
  0.6611007560931748  0.9542319718915810  0.6506670954851334
  0.6409300168709192  0.0344282673929261  0.3649368281211678
  0.3364374422908643  0.9636625329769828  0.3470710546190607
  0.3552653672214845  0.0347092504865332  0.6336430560509164
  0.8029084684602857  0.8008671025413122  0.1971708102653716
  0.1974386521267546  0.8019438053404587  0.8020033207516102
  0.7075216708853617  0.7077051331726724  0.7065565223944288
  0.2477303289272937  0.5032676304544575 -0.0065093135957538
  0.7485504444685001  0.5068814048168595 -0.0004486491651002
 -0.0039567876941615  0.2520260197567481  0.4972356149960149
 -0.0032404192368276  0.7517767589181447  0.5008852367748102
  0.4966439103866627 -0.0020671532091056  0.2477260622031433
  0.5012444155529981 -0.0016492672678116  0.7483548600681666
  0.2478988743886574 -0.0013516322911586  0.4979039191012679
  0.7481568779727219 -0.0018571009347743  0.5003425303994751
  0.4969099738011719  0.2517005304819734 -0.0031782512251925
  0.5015353511600054  0.7512993746354958 -0.0033292722885826
 -0.0067088200934034  0.5027261545908800  0.2479645339014912
  0.0005026974021089  0.5072019514469461  0.7485362600929665
 -0.0020665419686879 -0.0698647509400171 -0.0023124233319986
  0.5383552115144834  0.5420205188603368  0.5381320151376520
  0.1648393933176080  0.1661426404952337  0.1654962480957891
  0.8323035781021222  0.1690212694317469  0.8323144306406099
  0.3284155474405066  0.3282629500290623  0.6692562528495106
  0.6683791452226696  0.3278698409214139  0.3279290955568452
  0.3262418973111561  0.6712440484222071  0.3266362019939728
 
  0.00000000E+00  0.00000000E+00  0.00000000E+00
  0.00000000E+00  0.00000000E+00  0.00000000E+00
  0.00000000E+00  0.00000000E+00  0.00000000E+00
  0.00000000E+00  0.00000000E+00  0.00000000E+00
  0.00000000E+00  0.00000000E+00  0.00000000E+00
  0.00000000E+00  0.00000000E+00  0.00000000E+00
  0.00000000E+00  0.00000000E+00  0.00000000E+00
  0.00000000E+00  0.00000000E+00  0.00000000E+00
  0.00000000E+00  0.00000000E+00  0.00000000E+00
  0.00000000E+00  0.00000000E+00  0.00000000E+00
  0.00000000E+00  0.00000000E+00  0.00000000E+00
  0.00000000E+00  0.00000000E+00  0.00000000E+00
  0.00000000E+00  0.00000000E+00  0.00000000E+00
  0.00000000E+00  0.00000000E+00  0.00000000E+00
  0.00000000E+00  0.00000000E+00  0.00000000E+00
  0.00000000E+00  0.00000000E+00  0.00000000E+00
  0.00000000E+00  0.00000000E+00  0.00000000E+00
  0.00000000E+00  0.00000000E+00  0.00000000E+00
  0.00000000E+00  0.00000000E+00  0.00000000E+00
  0.00000000E+00  0.00000000E+00  0.00000000E+00
  0.00000000E+00  0.00000000E+00  0.00000000E+00
  0.00000000E+00  0.00000000E+00  0.00000000E+00
  0.00000000E+00  0.00000000E+00  0.00000000E+00
  0.00000000E+00  0.00000000E+00  0.00000000E+00
  0.00000000E+00  0.00000000E+00  0.00000000E+00
  0.00000000E+00  0.00000000E+00  0.00000000E+00
  0.00000000E+00  0.00000000E+00  0.00000000E+00
  0.00000000E+00  0.00000000E+00  0.00000000E+00
  0.00000000E+00  0.00000000E+00  0.00000000E+00
  0.00000000E+00  0.00000000E+00  0.00000000E+00
  0.00000000E+00  0.00000000E+00  0.00000000E+00
  0.00000000E+00  0.00000000E+00  0.00000000E+00
  0.00000000E+00  0.00000000E+00  0.00000000E+00
  0.00000000E+00  0.00000000E+00  0.00000000E+00
  0.00000000E+00  0.00000000E+00  0.00000000E+00
  0.00000000E+00  0.00000000E+00  0.00000000E+00
  0.00000000E+00  0.00000000E+00  0.00000000E+00
  0.00000000E+00  0.00000000E+00  0.00000000E+00
  0.00000000E+00  0.00000000E+00  0.00000000E+00
  0.00000000E+00  0.00000000E+00  0.00000000E+00
  0.00000000E+00  0.00000000E+00  0.00000000E+00
  0.00000000E+00  0.00000000E+00  0.00000000E+00
  0.00000000E+00  0.00000000E+00  0.00000000E+00
  0.00000000E+00  0.00000000E+00  0.00000000E+00
  0.00000000E+00  0.00000000E+00  0.00000000E+00
  0.00000000E+00  0.00000000E+00  0.00000000E+00
