Sodilite                                
   1.00000000000000     
     9.3007848619130673    0.0000000000000000   -0.0213914842901561
     0.0000000000000000    9.3096477523650467    0.0000000000000000
    -0.0214003906498129    0.0000000000000000    9.3015208951442609
   O    Na   Al   Si   Cl   K 
    24     2     6     6     2     6
Direct
  0.1525799154882609  0.4620895047643198  0.1614664949777266
  0.8649764960290636  0.5248636714126517  0.1449819988154669
  0.8474200845117397  0.4620895047643198  0.8385335050222734
  0.1350235039709366  0.5248636714126517  0.8550180011845336
  0.1538854474752241  0.1425380741521022  0.4638911915306244
  0.1526065148794020  0.8546112618227575  0.5265438635906386
  0.8473934851205975  0.8546112618227575  0.4734561364093616
  0.8461145525247759  0.1425380741521022  0.5361088084693750
  0.4651031974757283  0.1514479514842600  0.1440487613208221
  0.5348968025242714  0.1514479514842600  0.8559512386791774
  0.4724132719159543  0.8446665650668395  0.8561560725901254
  0.5275867280840454  0.8446665650668395  0.1438439274098749
  0.9729355801182097  0.6410961129206570  0.6543936067385318
  0.0287203603764330  0.3530789897530973  0.6525300263664412
  0.9712796396235674  0.3530789897530973  0.3474699736335591
  0.0270644198817900  0.6410961129206570  0.3456063932614682
  0.6449261469336428  0.6503428472878745  0.9741681717071620
  0.3550738530663572  0.6503428472878745  0.0258318282928377
  0.3564823505665353  0.3438380560838274  0.9702515816008266
  0.6435176494334653  0.3438380560838274  0.0297484183991739
  0.6511644289441805  0.9706835707692772  0.6429967055241561
  0.6556761053562806  0.0264833922729763  0.3547148485370157
  0.3488355710558193  0.9706835707692772  0.3570032944758443
  0.3443238946437196  0.0264833922729763  0.6452851514629840
  0.1972740943310475  0.2016748742430395  0.1973497652220064
  0.8027259056689525  0.2016748742430395  0.8026502347779937
  0.2494340846899878  0.4951100439622398  0.0022078282610331
  0.7505659153100119  0.4951100439622398 -0.0022078282610331
  0.0000000000000000  0.2462447415480465  0.5000000000000000
  0.0000000000000000  0.7465793140001589  0.5000000000000000
  0.5001922736250698 -0.0016881101277269  0.2495945173765846
  0.4998077263749297 -0.0016881101277269  0.7504054826234152
  0.2497589419342702 -0.0016134176246874  0.4986497293904494
  0.7502410580657299 -0.0016134176246874  0.5013502706095506
  0.5000000000000000  0.2469482326782447 -0.0000000000000000
  0.5000000000000000  0.7469446329043046 -0.0000000000000000
  0.0033153176515767  0.4950398857418483  0.2496940794595882
 -0.0033153176515767  0.4950398857418483  0.7503059205404115
  0.0000000000000000  0.0612102170397077 -0.0000000000000000
  0.5000000000000000  0.4944733614942891  0.5000000000000000
  0.8281512976269760  0.8282871503458357  0.1724945016466508
  0.1718487023730239  0.8282871503458357  0.8275054983533494
  0.6812660780524429  0.6814641692273844  0.6820096847135890
  0.3150777253422123  0.3147851566090514  0.6843138973170031
  0.6849222746577880  0.3147851566090514  0.3156861026829972
  0.3187339219475572  0.6814641692273844  0.3179903152864107
 
  0.00000000E+00  0.00000000E+00  0.00000000E+00
  0.00000000E+00  0.00000000E+00  0.00000000E+00
  0.00000000E+00  0.00000000E+00  0.00000000E+00
  0.00000000E+00  0.00000000E+00  0.00000000E+00
  0.00000000E+00  0.00000000E+00  0.00000000E+00
  0.00000000E+00  0.00000000E+00  0.00000000E+00
  0.00000000E+00  0.00000000E+00  0.00000000E+00
  0.00000000E+00  0.00000000E+00  0.00000000E+00
  0.00000000E+00  0.00000000E+00  0.00000000E+00
  0.00000000E+00  0.00000000E+00  0.00000000E+00
  0.00000000E+00  0.00000000E+00  0.00000000E+00
  0.00000000E+00  0.00000000E+00  0.00000000E+00
  0.00000000E+00  0.00000000E+00  0.00000000E+00
  0.00000000E+00  0.00000000E+00  0.00000000E+00
  0.00000000E+00  0.00000000E+00  0.00000000E+00
  0.00000000E+00  0.00000000E+00  0.00000000E+00
  0.00000000E+00  0.00000000E+00  0.00000000E+00
  0.00000000E+00  0.00000000E+00  0.00000000E+00
  0.00000000E+00  0.00000000E+00  0.00000000E+00
  0.00000000E+00  0.00000000E+00  0.00000000E+00
  0.00000000E+00  0.00000000E+00  0.00000000E+00
  0.00000000E+00  0.00000000E+00  0.00000000E+00
  0.00000000E+00  0.00000000E+00  0.00000000E+00
  0.00000000E+00  0.00000000E+00  0.00000000E+00
  0.00000000E+00  0.00000000E+00  0.00000000E+00
  0.00000000E+00  0.00000000E+00  0.00000000E+00
  0.00000000E+00  0.00000000E+00  0.00000000E+00
  0.00000000E+00  0.00000000E+00  0.00000000E+00
  0.00000000E+00  0.00000000E+00  0.00000000E+00
  0.00000000E+00  0.00000000E+00  0.00000000E+00
  0.00000000E+00  0.00000000E+00  0.00000000E+00
  0.00000000E+00  0.00000000E+00  0.00000000E+00
  0.00000000E+00  0.00000000E+00  0.00000000E+00
  0.00000000E+00  0.00000000E+00  0.00000000E+00
  0.00000000E+00  0.00000000E+00  0.00000000E+00
  0.00000000E+00  0.00000000E+00  0.00000000E+00
  0.00000000E+00  0.00000000E+00  0.00000000E+00
  0.00000000E+00  0.00000000E+00  0.00000000E+00
  0.00000000E+00  0.00000000E+00  0.00000000E+00
  0.00000000E+00  0.00000000E+00  0.00000000E+00
  0.00000000E+00  0.00000000E+00  0.00000000E+00
  0.00000000E+00  0.00000000E+00  0.00000000E+00
  0.00000000E+00  0.00000000E+00  0.00000000E+00
  0.00000000E+00  0.00000000E+00  0.00000000E+00
  0.00000000E+00  0.00000000E+00  0.00000000E+00
  0.00000000E+00  0.00000000E+00  0.00000000E+00
