Sodilite                                
   1.00000000000000     
     9.2263636367009081   -0.0149108930650940    0.0134146700374649
    -0.0149179251963300    9.2270522316770904    0.0363355395132919
     0.0134207349834207    0.0363200328682584    9.2275759175357006
   O    Na   Al   Si   Cl   K 
    24     3     6     6     2     5
Direct
  0.1486934031667946  0.4664805653026257  0.1525384176563963
  0.8602824945108662  0.5406542367091070  0.1504490107936964
  0.8578807488692125  0.4549089479395318  0.8425937820210485
  0.1427887133543352  0.5377397019291323  0.8501692678018520
  0.1531198285062373  0.1416458037171992  0.4616271402400607
  0.1597494470219360  0.8562691227995717  0.5353940615353194
  0.8519766685621516  0.8587634824794252  0.4602049513378977
  0.8493062893520820  0.1462597169243736  0.5431658306355078
  0.4681348814001390  0.1463627355779104  0.1321768562237923
  0.5503696076611646  0.1619462653682177  0.8471971791476901
  0.4692576088946711  0.8580492337656651  0.8645510153835010
  0.5443553276601438  0.8395472497244896  0.1519925202704849
  0.9681260598194710  0.6377516437968367  0.6470706558127787
  0.0481148591219455  0.3513709992047114  0.6569248567653614
  0.9677025810555576  0.3627965508566652  0.3507764127803121
  0.0375385341694061  0.6504479656580870  0.3413205382905682
  0.6545963122317171  0.6598596113565891  0.9616734390364599
  0.3673176697696095  0.6484505735515791  0.0317415403955325
  0.3528704318314622  0.3396208757530721  0.9547523885079585
  0.6378926532513289  0.3576577782648280  0.0352432653844302
  0.6489333710198959  0.9634273957803979  0.6341294887072543
  0.6641486493795211  0.0395123494372397  0.3493703941761009
  0.3587772142863787  0.9700215718795280  0.3621338019103635
  0.3442626825751442  0.0438673640795320  0.6507001284962491
  0.8067302130813103  0.8088406654459001  0.1909397360329540
  0.8028003875247988  0.1973813173647520  0.8011199902622226
  0.2979797133211919  0.2963183917067342  0.7024621866803580
  0.2555549769954338  0.4985154205596773 -0.0028562155072069
  0.7550732223012181  0.5024643399057409 -0.0035240488274712
  0.0046083111139705  0.2513595247395645  0.5014564935945707
  0.0052111713649980  0.7517310421688111  0.4977015183690347
  0.5088258405709518  0.0005751140776551  0.2478339503673196
  0.5044588056274859  0.0060531321714161  0.7488597588554351
  0.2551087431747820  0.0031683299557691  0.5019983577331686
  0.7546045444164574  0.0025976011836205  0.4970690245384649
  0.5034564012412706  0.2513958898701612 -0.0073143997866676
  0.5090829676773346  0.7519324306996804  0.0012812748861397
  0.0043185022230940  0.5042331037267039  0.2483219705845560
  0.0046849105293929  0.4964432554601447  0.7488369582674025
 -0.0640976414321623  0.0037559576027538 -0.0039312915572551
  0.4669857633796536  0.4631420599154719  0.5367763540906602
  0.1686793090763176  0.1688973381823967  0.1680661969637080
  0.1694854118151536  0.8313899543526914  0.8324910596838418
  0.6749963729990436  0.6738421833634084  0.6714119780803938
  0.6744596401448781  0.3293836958408114  0.3250350738295658
  0.3307963953822528  0.6731675098498192  0.3280671295481897
 
  0.00000000E+00  0.00000000E+00  0.00000000E+00
  0.00000000E+00  0.00000000E+00  0.00000000E+00
  0.00000000E+00  0.00000000E+00  0.00000000E+00
  0.00000000E+00  0.00000000E+00  0.00000000E+00
  0.00000000E+00  0.00000000E+00  0.00000000E+00
  0.00000000E+00  0.00000000E+00  0.00000000E+00
  0.00000000E+00  0.00000000E+00  0.00000000E+00
  0.00000000E+00  0.00000000E+00  0.00000000E+00
  0.00000000E+00  0.00000000E+00  0.00000000E+00
  0.00000000E+00  0.00000000E+00  0.00000000E+00
  0.00000000E+00  0.00000000E+00  0.00000000E+00
  0.00000000E+00  0.00000000E+00  0.00000000E+00
  0.00000000E+00  0.00000000E+00  0.00000000E+00
  0.00000000E+00  0.00000000E+00  0.00000000E+00
  0.00000000E+00  0.00000000E+00  0.00000000E+00
  0.00000000E+00  0.00000000E+00  0.00000000E+00
  0.00000000E+00  0.00000000E+00  0.00000000E+00
  0.00000000E+00  0.00000000E+00  0.00000000E+00
  0.00000000E+00  0.00000000E+00  0.00000000E+00
  0.00000000E+00  0.00000000E+00  0.00000000E+00
  0.00000000E+00  0.00000000E+00  0.00000000E+00
  0.00000000E+00  0.00000000E+00  0.00000000E+00
  0.00000000E+00  0.00000000E+00  0.00000000E+00
  0.00000000E+00  0.00000000E+00  0.00000000E+00
  0.00000000E+00  0.00000000E+00  0.00000000E+00
  0.00000000E+00  0.00000000E+00  0.00000000E+00
  0.00000000E+00  0.00000000E+00  0.00000000E+00
  0.00000000E+00  0.00000000E+00  0.00000000E+00
  0.00000000E+00  0.00000000E+00  0.00000000E+00
  0.00000000E+00  0.00000000E+00  0.00000000E+00
  0.00000000E+00  0.00000000E+00  0.00000000E+00
  0.00000000E+00  0.00000000E+00  0.00000000E+00
  0.00000000E+00  0.00000000E+00  0.00000000E+00
  0.00000000E+00  0.00000000E+00  0.00000000E+00
  0.00000000E+00  0.00000000E+00  0.00000000E+00
  0.00000000E+00  0.00000000E+00  0.00000000E+00
  0.00000000E+00  0.00000000E+00  0.00000000E+00
  0.00000000E+00  0.00000000E+00  0.00000000E+00
  0.00000000E+00  0.00000000E+00  0.00000000E+00
  0.00000000E+00  0.00000000E+00  0.00000000E+00
  0.00000000E+00  0.00000000E+00  0.00000000E+00
  0.00000000E+00  0.00000000E+00  0.00000000E+00
  0.00000000E+00  0.00000000E+00  0.00000000E+00
  0.00000000E+00  0.00000000E+00  0.00000000E+00
  0.00000000E+00  0.00000000E+00  0.00000000E+00
  0.00000000E+00  0.00000000E+00  0.00000000E+00
