Sodilite                                
   1.00000000000000     
     9.2771357687304761   -0.0156465630119067    0.0002099581181307
    -0.0156465630119067    9.2771357687304761   -0.0002099581181307
     0.0002103591436570   -0.0002103591436570    9.2660540298663339
   O    Na   Al   Si   Cl   K 
    24     2     6     6     2     6
Direct
  0.1521367056531586  0.4596626843937711  0.1577785052726369
  0.8635259028273528  0.5260965396372207  0.1431842912752456
  0.8499184424523696  0.4680182533761530  0.8357831257001115
  0.1355939942060974  0.5325305432804927  0.8529785080098458
  0.1573184872817479  0.1483018341985854  0.4548665010989215
  0.1499527309071746  0.8621307159112098  0.5284617407234625
  0.8428476790503000  0.8515790447496202  0.4699602369066649
  0.8518877176747506  0.1402565061851944  0.5280907328333440
  0.4584224729608855  0.1624291939961587  0.1488324849176682
  0.5320147267068462  0.1436556244967281  0.8633669583566631
  0.4691367818456036  0.8406351852975810  0.8459324381753368
  0.5267965584554136  0.8537447169258398  0.1349215044358570
  0.9739034603627793  0.6364740971726472  0.6431842912752450
  0.0403373156062289  0.3478632943468411  0.6577785052726370
  0.9674694567195073  0.3644060057939026  0.3529785080098459
  0.0319817466238470  0.6500815575476303  0.3357831257001108
  0.6484209552503798  0.6571523209497000  0.9699602369066647
  0.3597434938148054  0.6481122823252494  0.0280907328333441
  0.3516981658014146  0.3426815127182523  0.9548665010989223
  0.6378692840887902  0.3500472690928254  0.0284617407234633
  0.6462552830741602  0.9732034415445864  0.6349215044358565
  0.6593648147024190  0.0308632181543963  0.3459324381753373
  0.3563443755032717  0.9679852732931538  0.3633669583566628
  0.3375708060038413  0.0415775270391146  0.6488324849176681
  0.2061108234217778  0.2072142601657798  0.2059645183719187
  0.2927857398342201  0.2938891765782222  0.7059645183719194
  0.2500197952974917  0.4961806760098131 -0.0020246780227729
  0.7499155135502795  0.4991851060068225 -0.0058924711655051
  0.0038193239901867  0.2499802047025088  0.4979753219772270
  0.0008148939931774  0.7500844864497205  0.4941075288344948
  0.4996365471512923  0.0040898896050377  0.2463577995536154
  0.4959101103949624  0.0003634528487078  0.7463577995536160
  0.2501480619722407  0.0047671361048073  0.4982900070776872
  0.7500587160590966 -0.0002984681673460  0.4945020733625456
  0.4952328638951928  0.2498519380277594 -0.0017099929223129
  0.5002984681673462  0.7499412839409034 -0.0054979266374541
  0.0038454919949685  0.4996466311044716  0.2466348970211208
  0.0003533688955281  0.4961545080050316  0.7466348970211211
  0.0387434752451000  0.0388470934163020  0.0327773042328839
  0.4611529065836982  0.4612565247549000  0.5327773042328842
  0.8276944448647501  0.8273079796157065  0.1707097633913316
  0.8238348505726120  0.1738340139989741  0.8241678090346083
  0.1744723841927847  0.8242171440351712  0.8243559494368082
  0.6726920203842935  0.6723055551352499  0.6707097633913313
  0.6757828559648288  0.3255276158072155  0.3243559494368078
  0.3261659860010259  0.6761651494273880  0.3241678090346084
 
  0.00000000E+00  0.00000000E+00  0.00000000E+00
  0.00000000E+00  0.00000000E+00  0.00000000E+00
  0.00000000E+00  0.00000000E+00  0.00000000E+00
  0.00000000E+00  0.00000000E+00  0.00000000E+00
  0.00000000E+00  0.00000000E+00  0.00000000E+00
  0.00000000E+00  0.00000000E+00  0.00000000E+00
  0.00000000E+00  0.00000000E+00  0.00000000E+00
  0.00000000E+00  0.00000000E+00  0.00000000E+00
  0.00000000E+00  0.00000000E+00  0.00000000E+00
  0.00000000E+00  0.00000000E+00  0.00000000E+00
  0.00000000E+00  0.00000000E+00  0.00000000E+00
  0.00000000E+00  0.00000000E+00  0.00000000E+00
  0.00000000E+00  0.00000000E+00  0.00000000E+00
  0.00000000E+00  0.00000000E+00  0.00000000E+00
  0.00000000E+00  0.00000000E+00  0.00000000E+00
  0.00000000E+00  0.00000000E+00  0.00000000E+00
  0.00000000E+00  0.00000000E+00  0.00000000E+00
  0.00000000E+00  0.00000000E+00  0.00000000E+00
  0.00000000E+00  0.00000000E+00  0.00000000E+00
  0.00000000E+00  0.00000000E+00  0.00000000E+00
  0.00000000E+00  0.00000000E+00  0.00000000E+00
  0.00000000E+00  0.00000000E+00  0.00000000E+00
  0.00000000E+00  0.00000000E+00  0.00000000E+00
  0.00000000E+00  0.00000000E+00  0.00000000E+00
  0.00000000E+00  0.00000000E+00  0.00000000E+00
  0.00000000E+00  0.00000000E+00  0.00000000E+00
  0.00000000E+00  0.00000000E+00  0.00000000E+00
  0.00000000E+00  0.00000000E+00  0.00000000E+00
  0.00000000E+00  0.00000000E+00  0.00000000E+00
  0.00000000E+00  0.00000000E+00  0.00000000E+00
  0.00000000E+00  0.00000000E+00  0.00000000E+00
  0.00000000E+00  0.00000000E+00  0.00000000E+00
  0.00000000E+00  0.00000000E+00  0.00000000E+00
  0.00000000E+00  0.00000000E+00  0.00000000E+00
  0.00000000E+00  0.00000000E+00  0.00000000E+00
  0.00000000E+00  0.00000000E+00  0.00000000E+00
  0.00000000E+00  0.00000000E+00  0.00000000E+00
  0.00000000E+00  0.00000000E+00  0.00000000E+00
  0.00000000E+00  0.00000000E+00  0.00000000E+00
  0.00000000E+00  0.00000000E+00  0.00000000E+00
  0.00000000E+00  0.00000000E+00  0.00000000E+00
  0.00000000E+00  0.00000000E+00  0.00000000E+00
  0.00000000E+00  0.00000000E+00  0.00000000E+00
  0.00000000E+00  0.00000000E+00  0.00000000E+00
  0.00000000E+00  0.00000000E+00  0.00000000E+00
  0.00000000E+00  0.00000000E+00  0.00000000E+00
