Sodilite                                
   1.00000000000000     
     9.2111893232454989    0.0130116389188861    0.0061948677571840
     0.0130144045110228    9.2124472815823495    0.0057437269417036
     0.0062143434774050    0.0057546670235104    9.2317037010973682
   O    Na   Al   Si   Cl   K 
    24     3     6     6     2     5
Direct
  0.1357454433856748  0.4635441187560718  0.1468023969403953
  0.8521382897178956  0.5499161928518956  0.1610194276906756
  0.8626786676390390  0.4694448036490002  0.8551545188390512
  0.1521287812174340  0.5348832493847370  0.8431080481161761
  0.1635642115282721  0.1529309354027719  0.4636616079176270
  0.1447332229384694  0.8663586864822619  0.5347098448081031
  0.8388984282828137  0.8493313661454830  0.4542319304752251
  0.8590716905268663  0.1350610459726328  0.5344297902501935
  0.4646037801506864  0.1462903944681228  0.1382172709268934
  0.5360889823548453  0.1617231058668613  0.8522454985691654
  0.4685817495292802  0.8537273699142566  0.8652571805671833
  0.5485776950938788  0.8430642445331582  0.1512435005688297
  0.9657302929964873  0.6474134963417605  0.6546083133417383
  0.0327169208733392  0.3588461198022262  0.6524583671560966
  0.9559456514398659  0.3572518044475708  0.3450117484335203
  0.0482346951270136  0.6411390576783758  0.3513183087404849
  0.6303256399798365  0.6401798931658875  0.9646530632846567
  0.3466879538812301  0.6673984946702211  0.0469863119598984
  0.3692282957712821  0.3598570312679830  0.9712711866654217
  0.6571749453264455  0.3378131289169333  0.0459060151789546
  0.6572032732445677  0.9655746169389037  0.6446230441505917
  0.6514288598926796  0.0489455746310518  0.3601239390674537
  0.3474610358321646  0.9561408763342197  0.3549393381079909
  0.3506528849020212  0.0318276446619274  0.6428520097127021
  0.7924750396013678  0.7934404534685717  0.2077083420689595
  0.6970934223099484  0.3028300312109992  0.3008665364893650
  0.3025619690709094  0.6979982426980492  0.3019436564344652
  0.2522695153140166  0.5065097566138680  0.0032663963803565
  0.7514494037899959  0.5004483874288115  0.0068821719137565
  0.0033567225849570  0.2522735979229873  0.4979333551168683
 -0.0012445119761711  0.7516452912093260  0.4983502704603716
  0.5032409555497251 -0.0008857390504177  0.2517767828607050
  0.5039566795135572  0.0027655767214589  0.7520265956633675
  0.2521011973272452  0.0020969602933193  0.4986484253712437
  0.7518432809205404 -0.0003436375455395  0.4981433959316400
  0.5067093169543369  0.2520356232766917  0.0027247080276653
  0.4994959302491162  0.7514638064251175  0.0072023017612976
 -0.0015362350245587  0.5033287671756315  0.2512992188930000
  0.0030904994849632  0.5031781568281655  0.7517003644423229
 -0.0383567291243636 -0.0381335666050474  0.0420261673205070
  0.5020692894515046  0.5023151538661891  0.4301291763309495
  0.1737589023214015  0.1733637859928421  0.1712436207608643
  0.8316228310778542  0.1720691627990461  0.8278721620326381
  0.1715823989851365  0.8307458745441556  0.8282646433412040
  0.6676955450453738  0.6676843031929778  0.6690203306687444
  0.3351631849410546  0.3345067592484822  0.6661387162606793
 
  0.00000000E+00  0.00000000E+00  0.00000000E+00
  0.00000000E+00  0.00000000E+00  0.00000000E+00
  0.00000000E+00  0.00000000E+00  0.00000000E+00
  0.00000000E+00  0.00000000E+00  0.00000000E+00
  0.00000000E+00  0.00000000E+00  0.00000000E+00
  0.00000000E+00  0.00000000E+00  0.00000000E+00
  0.00000000E+00  0.00000000E+00  0.00000000E+00
  0.00000000E+00  0.00000000E+00  0.00000000E+00
  0.00000000E+00  0.00000000E+00  0.00000000E+00
  0.00000000E+00  0.00000000E+00  0.00000000E+00
  0.00000000E+00  0.00000000E+00  0.00000000E+00
  0.00000000E+00  0.00000000E+00  0.00000000E+00
  0.00000000E+00  0.00000000E+00  0.00000000E+00
  0.00000000E+00  0.00000000E+00  0.00000000E+00
  0.00000000E+00  0.00000000E+00  0.00000000E+00
  0.00000000E+00  0.00000000E+00  0.00000000E+00
  0.00000000E+00  0.00000000E+00  0.00000000E+00
  0.00000000E+00  0.00000000E+00  0.00000000E+00
  0.00000000E+00  0.00000000E+00  0.00000000E+00
  0.00000000E+00  0.00000000E+00  0.00000000E+00
  0.00000000E+00  0.00000000E+00  0.00000000E+00
  0.00000000E+00  0.00000000E+00  0.00000000E+00
  0.00000000E+00  0.00000000E+00  0.00000000E+00
  0.00000000E+00  0.00000000E+00  0.00000000E+00
  0.00000000E+00  0.00000000E+00  0.00000000E+00
  0.00000000E+00  0.00000000E+00  0.00000000E+00
  0.00000000E+00  0.00000000E+00  0.00000000E+00
  0.00000000E+00  0.00000000E+00  0.00000000E+00
  0.00000000E+00  0.00000000E+00  0.00000000E+00
  0.00000000E+00  0.00000000E+00  0.00000000E+00
  0.00000000E+00  0.00000000E+00  0.00000000E+00
  0.00000000E+00  0.00000000E+00  0.00000000E+00
  0.00000000E+00  0.00000000E+00  0.00000000E+00
  0.00000000E+00  0.00000000E+00  0.00000000E+00
  0.00000000E+00  0.00000000E+00  0.00000000E+00
  0.00000000E+00  0.00000000E+00  0.00000000E+00
  0.00000000E+00  0.00000000E+00  0.00000000E+00
  0.00000000E+00  0.00000000E+00  0.00000000E+00
  0.00000000E+00  0.00000000E+00  0.00000000E+00
  0.00000000E+00  0.00000000E+00  0.00000000E+00
  0.00000000E+00  0.00000000E+00  0.00000000E+00
  0.00000000E+00  0.00000000E+00  0.00000000E+00
  0.00000000E+00  0.00000000E+00  0.00000000E+00
  0.00000000E+00  0.00000000E+00  0.00000000E+00
  0.00000000E+00  0.00000000E+00  0.00000000E+00
  0.00000000E+00  0.00000000E+00  0.00000000E+00
