Sodilite                                
   1.00000000000000     
     9.3096521673460728    0.0000000000000000    0.0000000000000000
     0.0000000000000000    9.3007898000769238   -0.0214028870517340
     0.0000000000000000   -0.0214117893474131    9.3015141795548413
   O    Na   Al   Si   Cl   K 
    24     2     6     6     2     6
Direct
  0.1410959120227157  0.4729359823257462  0.1543933783535602
  0.8530786138709830  0.5287206557514299  0.1525305304677946
  0.8530786138709830  0.4712793442485699  0.8474694695322057
  0.1410959120227157  0.5270640176742539  0.8456066216464397
  0.1503426660820190  0.1449258103623742  0.4741681262450472
  0.1503426660820190  0.8550741896376257  0.5258318737549534
  0.8438379003051752  0.8564825723038949  0.4702516762072131
  0.8438379003051752  0.1435174276961051  0.5297483237927866
  0.4706838393522393  0.1511640793645890  0.1429962763406433
  0.5264834508901187  0.1556764507813413  0.8547149301566234
  0.4706838393522393  0.8488359206354112  0.8570037236593570
  0.5264834508901187  0.8443235492186588  0.1452850698433770
  0.9620898672393561  0.6525795124851983  0.6614659969604872
  0.0248641715996827  0.3649766092561543  0.6449821020227390
  0.9620898672393561  0.3474204875148021  0.3385340030395121
  0.0248641715996827  0.6350233907438455  0.3550178979772613
  0.6425374627174272  0.6538850712385476  0.9638912116942298
  0.3546113290346497  0.6526065425263925  0.0265441579232352
  0.3546113290346497  0.3473934574736079  0.9734558420767648
  0.6425374627174272  0.3461149287614519  0.0361087883057704
  0.6514475430336586  0.9651029736594676  0.6440484976467482
  0.6514475430336586  0.0348970263405326  0.3559515023532520
  0.3446662715415374  0.9724133622189665  0.3561560820088165
  0.3446662715415374  0.0275866377810333  0.6438439179911830
  0.7016746043816828  0.6972737160890078  0.6973493641128120
  0.7016746043816828  0.3027262839109921  0.3026506358871879
  0.2465792386401380  0.5000000000000000 -0.0000000000000000
  0.7462446782677157  0.5000000000000000 -0.0000000000000000
 -0.0048901885087867  0.2505659285631512  0.4977921056443991
 -0.0048901885087867  0.7494340714368489  0.5022078943556009
  0.4983117058949099 -0.0001922677976806  0.2504054059777998
  0.4983117058949099  0.0001922677976806  0.7495945940222004
  0.2469443548660699  0.0000000000000000  0.5000000000000000
  0.7469480604512290  0.0000000000000000  0.5000000000000000
  0.4983865055365964  0.2502412525830776  0.0013504637296866
  0.4983865055365964  0.7497587474169224 -0.0013504637296866
 -0.0049602313612140  0.4966845821941326  0.2503059789403733
 -0.0049602313612140  0.5033154178058671  0.7496940210596270
 -0.0055235445414244  0.0000000000000000 -0.0000000000000000
  0.5612095154996862  0.5000000000000000  0.5000000000000000
  0.1814657715212585  0.1812675678745288  0.1820111746121937
  0.8147856445983878  0.8150780282775338  0.1843133030461395
  0.8147856445983878  0.1849219717224657  0.8156866969538602
  0.1814657715212585  0.8187324321254712  0.8179888253878065
  0.3282860086558935  0.3281504860032081  0.6724951884299443
  0.3282860086558935  0.6718495139967923  0.3275048115700557
 
  0.00000000E+00  0.00000000E+00  0.00000000E+00
  0.00000000E+00  0.00000000E+00  0.00000000E+00
  0.00000000E+00  0.00000000E+00  0.00000000E+00
  0.00000000E+00  0.00000000E+00  0.00000000E+00
  0.00000000E+00  0.00000000E+00  0.00000000E+00
  0.00000000E+00  0.00000000E+00  0.00000000E+00
  0.00000000E+00  0.00000000E+00  0.00000000E+00
  0.00000000E+00  0.00000000E+00  0.00000000E+00
  0.00000000E+00  0.00000000E+00  0.00000000E+00
  0.00000000E+00  0.00000000E+00  0.00000000E+00
  0.00000000E+00  0.00000000E+00  0.00000000E+00
  0.00000000E+00  0.00000000E+00  0.00000000E+00
  0.00000000E+00  0.00000000E+00  0.00000000E+00
  0.00000000E+00  0.00000000E+00  0.00000000E+00
  0.00000000E+00  0.00000000E+00  0.00000000E+00
  0.00000000E+00  0.00000000E+00  0.00000000E+00
  0.00000000E+00  0.00000000E+00  0.00000000E+00
  0.00000000E+00  0.00000000E+00  0.00000000E+00
  0.00000000E+00  0.00000000E+00  0.00000000E+00
  0.00000000E+00  0.00000000E+00  0.00000000E+00
  0.00000000E+00  0.00000000E+00  0.00000000E+00
  0.00000000E+00  0.00000000E+00  0.00000000E+00
  0.00000000E+00  0.00000000E+00  0.00000000E+00
  0.00000000E+00  0.00000000E+00  0.00000000E+00
  0.00000000E+00  0.00000000E+00  0.00000000E+00
  0.00000000E+00  0.00000000E+00  0.00000000E+00
  0.00000000E+00  0.00000000E+00  0.00000000E+00
  0.00000000E+00  0.00000000E+00  0.00000000E+00
  0.00000000E+00  0.00000000E+00  0.00000000E+00
  0.00000000E+00  0.00000000E+00  0.00000000E+00
  0.00000000E+00  0.00000000E+00  0.00000000E+00
  0.00000000E+00  0.00000000E+00  0.00000000E+00
  0.00000000E+00  0.00000000E+00  0.00000000E+00
  0.00000000E+00  0.00000000E+00  0.00000000E+00
  0.00000000E+00  0.00000000E+00  0.00000000E+00
  0.00000000E+00  0.00000000E+00  0.00000000E+00
  0.00000000E+00  0.00000000E+00  0.00000000E+00
  0.00000000E+00  0.00000000E+00  0.00000000E+00
  0.00000000E+00  0.00000000E+00  0.00000000E+00
  0.00000000E+00  0.00000000E+00  0.00000000E+00
  0.00000000E+00  0.00000000E+00  0.00000000E+00
  0.00000000E+00  0.00000000E+00  0.00000000E+00
  0.00000000E+00  0.00000000E+00  0.00000000E+00
  0.00000000E+00  0.00000000E+00  0.00000000E+00
  0.00000000E+00  0.00000000E+00  0.00000000E+00
  0.00000000E+00  0.00000000E+00  0.00000000E+00
