Sodilite                                
   1.00000000000000     
     9.2274621321735637    0.0144286968475647   -0.0353207057682418
     0.0144200465310526    9.2275247653367014    0.0129366764514788
    -0.0353055300013341    0.0129442732853777    9.2278808513398971
   O    Na   Al   Si   Cl   K 
    24     3     6     6     2     5
Direct
  0.1504262295608103  0.4624676721094810  0.1586320711323475
  0.8627246346821333  0.5323111502032311  0.1493127396232296
  0.8513834125525549  0.4518649638622355  0.8430938322271694
  0.1378290841750836  0.5318695053571766  0.8528347079396873
  0.1485059965175682  0.1327014467924520  0.4682593026064182
  0.1598282083926676  0.8454106990597644  0.5383229081948937
  0.8576178229611805  0.8620568162204172  0.4648030711407387
  0.8395882254147953  0.1471185083627856  0.5452848164440948
  0.4700307679593378  0.1412503287928515  0.1379123189856048
  0.5439034220166272  0.1557379551854979  0.8492901607333689
  0.4634496449985882  0.8510058391604935  0.8658360278516728
  0.5395117342422653  0.8358502426403913  0.1506247051778710
  0.9548978394775386  0.6421061164922790  0.6574353119917101
  0.0376717577415094  0.3571686046967035  0.6498532959115767
  0.9665103182874949  0.3512931959453004  0.3474652409967540
  0.0407012824000696  0.6397256151024381  0.3495438411936688
  0.6462782727916950  0.6506946550004987  0.9568048745398859
  0.3587495515366853  0.6480423379232838  0.0398493994371643
  0.3562694565351409  0.3402358445064292  0.9646262738910366
  0.6416701937282485  0.3468727316191832  0.0383107896070329
  0.6619395400566004  0.9496418319623671  0.6528134487586379
  0.6464092631853011  0.0318436650717587  0.3677949156290088
  0.3395457450559845  0.9555932441494868  0.3479907855835676
  0.3580367766131465  0.0307227111290908  0.6354862973080123
  0.7963478060551034  0.2020146621468226  0.7975686204747078
  0.6973289563352969  0.6971693016087199  0.6988258129288383
  0.3088009962839472  0.6932782922562036  0.3090179717235861
  0.2517536855739599  0.4947969586995461  0.0022681934995673
  0.7513473735766781  0.4954183594488046 -0.0014399391290033
 -0.0014754472869162  0.2444738279749809  0.5028463852068090
  0.0024483020134103  0.7449411961111971  0.5035289320470400
  0.5005928134858124 -0.0088114218763586  0.2521583396171871
  0.5060223546205667 -0.0044650469076325  0.7511430687964965
  0.2519228391441207 -0.0090744467943262  0.4987380082440676
  0.7513863508644173 -0.0034757106305371  0.5073160962321598
  0.5031906071461995  0.2449046580868356 -0.0020064029216524
  0.5026013480994738  0.7453994850629391  0.0028977596678887
  0.0042020610623119  0.4957034445603435  0.2516802479613322
 -0.0035583236088594  0.4953225944051132  0.7511628485370681
 -0.0368429131067173  0.0330483402166766 -0.0367598031513247
  0.5037343794143347  0.5640928485640562  0.5039049906711858
  0.1732140336122514  0.1692463264559873  0.1719875039208363
  0.8293482247957388  0.8255617773832398  0.1749679579173899
  0.1738675635376295  0.8250301813338211  0.8285658022235255
  0.3313833182797130  0.3305206316484018  0.6675293561542814
  0.6689044892184995  0.3313180588995682  0.3319171124728600
 
  0.00000000E+00  0.00000000E+00  0.00000000E+00
  0.00000000E+00  0.00000000E+00  0.00000000E+00
  0.00000000E+00  0.00000000E+00  0.00000000E+00
  0.00000000E+00  0.00000000E+00  0.00000000E+00
  0.00000000E+00  0.00000000E+00  0.00000000E+00
  0.00000000E+00  0.00000000E+00  0.00000000E+00
  0.00000000E+00  0.00000000E+00  0.00000000E+00
  0.00000000E+00  0.00000000E+00  0.00000000E+00
  0.00000000E+00  0.00000000E+00  0.00000000E+00
  0.00000000E+00  0.00000000E+00  0.00000000E+00
  0.00000000E+00  0.00000000E+00  0.00000000E+00
  0.00000000E+00  0.00000000E+00  0.00000000E+00
  0.00000000E+00  0.00000000E+00  0.00000000E+00
  0.00000000E+00  0.00000000E+00  0.00000000E+00
  0.00000000E+00  0.00000000E+00  0.00000000E+00
  0.00000000E+00  0.00000000E+00  0.00000000E+00
  0.00000000E+00  0.00000000E+00  0.00000000E+00
  0.00000000E+00  0.00000000E+00  0.00000000E+00
  0.00000000E+00  0.00000000E+00  0.00000000E+00
  0.00000000E+00  0.00000000E+00  0.00000000E+00
  0.00000000E+00  0.00000000E+00  0.00000000E+00
  0.00000000E+00  0.00000000E+00  0.00000000E+00
  0.00000000E+00  0.00000000E+00  0.00000000E+00
  0.00000000E+00  0.00000000E+00  0.00000000E+00
  0.00000000E+00  0.00000000E+00  0.00000000E+00
  0.00000000E+00  0.00000000E+00  0.00000000E+00
  0.00000000E+00  0.00000000E+00  0.00000000E+00
  0.00000000E+00  0.00000000E+00  0.00000000E+00
  0.00000000E+00  0.00000000E+00  0.00000000E+00
  0.00000000E+00  0.00000000E+00  0.00000000E+00
  0.00000000E+00  0.00000000E+00  0.00000000E+00
  0.00000000E+00  0.00000000E+00  0.00000000E+00
  0.00000000E+00  0.00000000E+00  0.00000000E+00
  0.00000000E+00  0.00000000E+00  0.00000000E+00
  0.00000000E+00  0.00000000E+00  0.00000000E+00
  0.00000000E+00  0.00000000E+00  0.00000000E+00
  0.00000000E+00  0.00000000E+00  0.00000000E+00
  0.00000000E+00  0.00000000E+00  0.00000000E+00
  0.00000000E+00  0.00000000E+00  0.00000000E+00
  0.00000000E+00  0.00000000E+00  0.00000000E+00
  0.00000000E+00  0.00000000E+00  0.00000000E+00
  0.00000000E+00  0.00000000E+00  0.00000000E+00
  0.00000000E+00  0.00000000E+00  0.00000000E+00
  0.00000000E+00  0.00000000E+00  0.00000000E+00
  0.00000000E+00  0.00000000E+00  0.00000000E+00
  0.00000000E+00  0.00000000E+00  0.00000000E+00
