Sodilite                                
   1.00000000000000     
     9.2705018546989653    0.0099183321407926   -0.0099183265791237
     0.0099183265791237    9.2705018546989653   -0.0099183321407926
    -0.0099183321407926   -0.0099183265791237    9.2705018546989653
   O    Na   Al   Si   Cl   K 
    24     3     6     6     2     5
Direct
  0.1414976497756474  0.4670475316313585  0.1539581142523724
  0.8543103592620637  0.5310372919333666  0.1551348575885529
  0.8545646821851831  0.4685700716290193  0.8496441207711555
  0.1430641317882922  0.5292041460062554  0.8468677604851080
  0.1531322395148920  0.1430641317882922  0.4707958539937441
  0.1503558792288443  0.8545646821851831  0.5314299283709806
  0.8448651424114469  0.8543103592620637  0.4689627080666340
  0.8460418857476278  0.1414976497756474  0.5329524683686411
  0.4685700716290193  0.1503558792288443  0.1454353178148167
  0.5292041460062554  0.1531322395148920  0.8569358682117080
  0.4670475316313585  0.8460418857476278  0.8585023502243530
  0.5310372919333666  0.8448651424114469  0.1456896407379363
  0.9598025523087393  0.6468900048157020  0.6581404852954570
  0.0287998574382659  0.3597413601549006  0.6498991639128996
  0.9607915229070516  0.3511971766784847  0.3443027231593778
  0.0365521082094261  0.6386431628960521  0.3512220367066982
  0.6386431628960521  0.6487779632933016  0.9634478917905738
  0.3511971766784847  0.6556972768406222  0.0392084770929481
  0.3597413601549006  0.3501008360871003  0.9712001425617338
  0.6468900048157020  0.3418595147045427  0.0401974476912609
  0.6556972768406222  0.9607915229070516  0.6488028233215151
  0.6487779632933016  0.0365521082094261  0.3613568371039479
  0.3418595147045427  0.9598025523087393  0.3531099951842981
  0.3501008360871003  0.0287998574382659  0.6402586398450998
  0.6967126450426889  0.6967907111525056  0.6898287605421589
  0.6967907111525056  0.3101712394578415  0.3032873549573112
  0.3101712394578415  0.6967126450426889  0.3032092888474944
  0.2486147823213749  0.5000560566055462  0.0022852258420877
  0.7474176293213709  0.4982414024458655  0.0023226243656463
 -0.0022852258420877  0.2486147823213749  0.4999439433944545
 -0.0023226243656463  0.7474176293213709  0.5017585975541351
  0.4982414024458655 -0.0023226243656463  0.2525823706786291
  0.5000560566055462 -0.0022852258420877  0.7513852176786253
  0.2487674005060335 -0.0032479860293914  0.4993563591554820
  0.7483007655034674 -0.0018795227768305  0.5026675280530141
  0.5006436408445176  0.2487674005060335  0.0032479860293914
  0.4973324719469856  0.7483007655034674  0.0018795227768305
 -0.0018795227768305  0.4973324719469856  0.2516992344965328
 -0.0032479860293914  0.5006436408445176  0.7512325994939661
 -0.0030879766175741 -0.0030879766175741  0.0030879766175741
  0.5286411486875220  0.5286411486875220  0.4713588513124776
  0.1814383376415331  0.1805597554306111  0.1816847987478481
  0.8149967364463471  0.8149967364463471  0.1850032635536527
  0.8183152012521518  0.1814383376415331  0.8194402445693887
  0.1805597554306111  0.8183152012521518  0.8185616623584668
  0.3332790635769800  0.3332790635769800  0.6667209364230200
 
  0.00000000E+00  0.00000000E+00  0.00000000E+00
  0.00000000E+00  0.00000000E+00  0.00000000E+00
  0.00000000E+00  0.00000000E+00  0.00000000E+00
  0.00000000E+00  0.00000000E+00  0.00000000E+00
  0.00000000E+00  0.00000000E+00  0.00000000E+00
  0.00000000E+00  0.00000000E+00  0.00000000E+00
  0.00000000E+00  0.00000000E+00  0.00000000E+00
  0.00000000E+00  0.00000000E+00  0.00000000E+00
  0.00000000E+00  0.00000000E+00  0.00000000E+00
  0.00000000E+00  0.00000000E+00  0.00000000E+00
  0.00000000E+00  0.00000000E+00  0.00000000E+00
  0.00000000E+00  0.00000000E+00  0.00000000E+00
  0.00000000E+00  0.00000000E+00  0.00000000E+00
  0.00000000E+00  0.00000000E+00  0.00000000E+00
  0.00000000E+00  0.00000000E+00  0.00000000E+00
  0.00000000E+00  0.00000000E+00  0.00000000E+00
  0.00000000E+00  0.00000000E+00  0.00000000E+00
  0.00000000E+00  0.00000000E+00  0.00000000E+00
  0.00000000E+00  0.00000000E+00  0.00000000E+00
  0.00000000E+00  0.00000000E+00  0.00000000E+00
  0.00000000E+00  0.00000000E+00  0.00000000E+00
  0.00000000E+00  0.00000000E+00  0.00000000E+00
  0.00000000E+00  0.00000000E+00  0.00000000E+00
  0.00000000E+00  0.00000000E+00  0.00000000E+00
  0.00000000E+00  0.00000000E+00  0.00000000E+00
  0.00000000E+00  0.00000000E+00  0.00000000E+00
  0.00000000E+00  0.00000000E+00  0.00000000E+00
  0.00000000E+00  0.00000000E+00  0.00000000E+00
  0.00000000E+00  0.00000000E+00  0.00000000E+00
  0.00000000E+00  0.00000000E+00  0.00000000E+00
  0.00000000E+00  0.00000000E+00  0.00000000E+00
  0.00000000E+00  0.00000000E+00  0.00000000E+00
  0.00000000E+00  0.00000000E+00  0.00000000E+00
  0.00000000E+00  0.00000000E+00  0.00000000E+00
  0.00000000E+00  0.00000000E+00  0.00000000E+00
  0.00000000E+00  0.00000000E+00  0.00000000E+00
  0.00000000E+00  0.00000000E+00  0.00000000E+00
  0.00000000E+00  0.00000000E+00  0.00000000E+00
  0.00000000E+00  0.00000000E+00  0.00000000E+00
  0.00000000E+00  0.00000000E+00  0.00000000E+00
  0.00000000E+00  0.00000000E+00  0.00000000E+00
  0.00000000E+00  0.00000000E+00  0.00000000E+00
  0.00000000E+00  0.00000000E+00  0.00000000E+00
  0.00000000E+00  0.00000000E+00  0.00000000E+00
  0.00000000E+00  0.00000000E+00  0.00000000E+00
  0.00000000E+00  0.00000000E+00  0.00000000E+00
