Sodilite                                
   1.00000000000000     
     9.0385943981964623    0.0002469972426275   -0.0321332710808937
     0.0002446060672283    9.0332004114140485    0.0002446060672283
    -0.0321332710808937    0.0002469972426275    9.0385943981964623
   O    Na   Al   Si   Cl   K 
    24     6     6     6     2     2
Direct
  0.1448841867248745  0.4381570672234231  0.1562488772407367
  0.8663303538433933  0.5584395125103147  0.1445742233489402
  0.8525751199596501  0.4389014012427221  0.8454665639150011
  0.1358477760242549  0.5458548552042637  0.8537550936076765
  0.1562567871863064  0.1445870291798637  0.4415233416178164
  0.1443195055700776  0.8615520596947086  0.5484356802028914
  0.8450127548067912  0.8543016587667067  0.4383982410422131
  0.8540253551042866  0.1330429254843196  0.5583925780599313
  0.4429232472162919  0.1419877205283860  0.1360241286431144
  0.5578035207453501  0.1537914026577706  0.8546255490767235
  0.4501537742155325  0.8514552568071184  0.8647093292553543
  0.5621924534915652  0.8427004216537968  0.1451297042256823
  0.9415233416178160  0.6445870291798638  0.6562567871863069
  0.0484356802028913  0.3615520596947084  0.6443195055700774
  0.9383982410422133  0.3543016587667069  0.3450127548067907
  0.0583925780599312  0.6330429254843194  0.3540253551042862
  0.6360241286431141  0.6419877205283857  0.9429232472162923
  0.3546255490767232  0.6537914026577705  0.0578035207453500
  0.3647093292553539  0.3514552568071186  0.9501537742155322
  0.6451297042256824  0.3427004216537964  0.0621924534915649
  0.6562488772407364  0.9381570672234228  0.6448841867248742
  0.6445742233489399  0.0584395125103148  0.3663303538433939
  0.3454665639150007  0.9389014012427218  0.3525751199596501
  0.3537550936076761  0.0458548552042643  0.6358477760242552
  0.1850796885132161  0.1825920739961161  0.1849579318813523
  0.8133076078309220  0.8112418412089557  0.1872293067223181
  0.8145495537167149  0.1834276753102118  0.8161799092785993
  0.6849579318813527  0.6825920739961161  0.6850796885132161
  0.6872293067223184  0.3112418412089552  0.3133076078309217
  0.3161799092785994  0.6834276753102118  0.3145495537167148
  0.2499230074426079  0.4972148771199410  0.0038998543937305
  0.7500837995942671  0.4946945416832638  0.0007645773883956
 -0.0009520286059822  0.2465514724497616  0.4963328333380550
 -0.0036671666619449  0.7465514724497614  0.4990479713940176
  0.5007645773883955 -0.0053054583167361  0.2500837995942675
  0.5038998543937304 -0.0027851228800589  0.7499230074426080
  0.2500044234028927 -0.0026982082785049  0.4949945465729984
  0.7499716607029941 -0.0046048351563386  0.5008986092272554
  0.5030654003769155  0.2467813594178067  0.0010149599818210
  0.5010149599818206  0.7467813594178065  0.0030654003769159
  0.0008986092272554  0.4953951648436615  0.2499716607029939
 -0.0050054534270019  0.4973017917214951  0.7500044234028933
 -0.0393725389717390  0.0344179383167470  0.0396385708407463
  0.5396385708407463  0.5344179383167466  0.4606274610282609
  0.1528577963973856  0.8456099529786459  0.8459623848500794
  0.3459623848500794  0.3456099529786454  0.6528577963973854
 
  0.00000000E+00  0.00000000E+00  0.00000000E+00
  0.00000000E+00  0.00000000E+00  0.00000000E+00
  0.00000000E+00  0.00000000E+00  0.00000000E+00
  0.00000000E+00  0.00000000E+00  0.00000000E+00
  0.00000000E+00  0.00000000E+00  0.00000000E+00
  0.00000000E+00  0.00000000E+00  0.00000000E+00
  0.00000000E+00  0.00000000E+00  0.00000000E+00
  0.00000000E+00  0.00000000E+00  0.00000000E+00
  0.00000000E+00  0.00000000E+00  0.00000000E+00
  0.00000000E+00  0.00000000E+00  0.00000000E+00
  0.00000000E+00  0.00000000E+00  0.00000000E+00
  0.00000000E+00  0.00000000E+00  0.00000000E+00
  0.00000000E+00  0.00000000E+00  0.00000000E+00
  0.00000000E+00  0.00000000E+00  0.00000000E+00
  0.00000000E+00  0.00000000E+00  0.00000000E+00
  0.00000000E+00  0.00000000E+00  0.00000000E+00
  0.00000000E+00  0.00000000E+00  0.00000000E+00
  0.00000000E+00  0.00000000E+00  0.00000000E+00
  0.00000000E+00  0.00000000E+00  0.00000000E+00
  0.00000000E+00  0.00000000E+00  0.00000000E+00
  0.00000000E+00  0.00000000E+00  0.00000000E+00
  0.00000000E+00  0.00000000E+00  0.00000000E+00
  0.00000000E+00  0.00000000E+00  0.00000000E+00
  0.00000000E+00  0.00000000E+00  0.00000000E+00
  0.00000000E+00  0.00000000E+00  0.00000000E+00
  0.00000000E+00  0.00000000E+00  0.00000000E+00
  0.00000000E+00  0.00000000E+00  0.00000000E+00
  0.00000000E+00  0.00000000E+00  0.00000000E+00
  0.00000000E+00  0.00000000E+00  0.00000000E+00
  0.00000000E+00  0.00000000E+00  0.00000000E+00
  0.00000000E+00  0.00000000E+00  0.00000000E+00
  0.00000000E+00  0.00000000E+00  0.00000000E+00
  0.00000000E+00  0.00000000E+00  0.00000000E+00
  0.00000000E+00  0.00000000E+00  0.00000000E+00
  0.00000000E+00  0.00000000E+00  0.00000000E+00
  0.00000000E+00  0.00000000E+00  0.00000000E+00
  0.00000000E+00  0.00000000E+00  0.00000000E+00
  0.00000000E+00  0.00000000E+00  0.00000000E+00
  0.00000000E+00  0.00000000E+00  0.00000000E+00
  0.00000000E+00  0.00000000E+00  0.00000000E+00
  0.00000000E+00  0.00000000E+00  0.00000000E+00
  0.00000000E+00  0.00000000E+00  0.00000000E+00
  0.00000000E+00  0.00000000E+00  0.00000000E+00
  0.00000000E+00  0.00000000E+00  0.00000000E+00
  0.00000000E+00  0.00000000E+00  0.00000000E+00
  0.00000000E+00  0.00000000E+00  0.00000000E+00
