Sodilite                                
   1.00000000000000     
     9.0936805259348397   -0.0137263051717545    0.0144092990396925
    -0.0137338567405455    9.0947867460260134    0.0158507050123325
     0.0144046112629691    0.0158474454533745    9.1078688530890712
   O    Na   Al   Si   Cl   K 
    24     5     6     6     2     3
Direct
  0.1393027836496231  0.4595880262379556  0.1446434141023004
  0.8525720599694506  0.5529381996703078  0.1540909282188875
  0.8661697517777242  0.4441800622357454  0.8523907626820731
  0.1451875310710940  0.5585959479295516  0.8425787286324146
  0.1454180558710319  0.1364088564028108  0.4559580349338589
  0.1591914172438902  0.8526895689042245  0.5550345643780329
  0.8563819647255220  0.8655997074791109  0.4467377072819926
  0.8427896075855069  0.1479736945983506  0.5543288171364333
  0.4583898735249207  0.1496296294745658  0.1356421552786197
  0.5577947715883642  0.1554157810465578  0.8523164377250696
  0.4455609628540030  0.8562577518577480  0.8634536126935076
  0.5533900097208651  0.8432742630818516  0.1450280670047693
  0.9438958783008831  0.6405547364134466  0.6494719858108231
  0.0560774702890771  0.3607070882820745  0.6502444296753608
  0.9562784849865433  0.3583851471852273  0.3463003336945965
  0.0460309375844177  0.6442852357160649  0.3483585056817697
  0.6541346935791489  0.6644652307686746  0.9412774992045113
  0.3721913965762526  0.6406870771459916  0.0425645325999695
  0.3472110787153367  0.3371999831216334  0.9442874679741154
  0.6310073899401933  0.3630456322856328  0.0410177483245914
  0.6518839524104699  0.9434949029607607  0.6400129392607168
  0.6526181976182194  0.0472112222263801  0.3583131901988854
  0.3489010909543608  0.9568158435989185  0.3573737529461792
  0.3510659964731120  0.0548785796371660  0.6417356472808878
  0.8144170670587616  0.8134924862999334  0.1830275283059029
  0.8111673070950501  0.1886757277909772  0.8099862016409718
  0.1897325314549240  0.8118418029435923  0.8104965108660701
  0.6971923025795421  0.6968325605690028  0.6940509109009698
  0.3077285641881222  0.3066934253024349  0.6917537683354230
  0.2518165393036442  0.4995711478112807 -0.0074311121386737
  0.7516862431320276  0.5061022506194974 -0.0046603781201591
 -0.0008498211095189  0.2516627343501681  0.5014226750988332
  0.0020700500314921  0.7517443390902204  0.5012222005913096
  0.5029472855615446 -0.0005251829663748  0.2477655188857741
  0.5027967977856693  0.0018530717274644  0.7489529862286650
  0.2514268897315683 -0.0000448490508887  0.5022628727197375
  0.7513752232469920  0.0013591885807350  0.5004181630721883
  0.4992524189258571  0.2516560944448472 -0.0072420446333671
  0.5061965830731092  0.7513666634659979 -0.0031688480146191
 -0.0010419890941736  0.5036814660977990  0.2477562027333929
  0.0025398297767918  0.5017447691293631  0.7486044736712448
 -0.0334087795040841 -0.0335960691704358 -0.0397214840647356
  0.5026928618005397  0.5024845863062997  0.5790335787453081
  0.1565962639917170  0.1575844198248688  0.1567578374442582
  0.6597071336807410  0.3411865180396780  0.3372013948579511
  0.3405133402796727  0.6603506805327884  0.3383497801531879
 
  0.00000000E+00  0.00000000E+00  0.00000000E+00
  0.00000000E+00  0.00000000E+00  0.00000000E+00
  0.00000000E+00  0.00000000E+00  0.00000000E+00
  0.00000000E+00  0.00000000E+00  0.00000000E+00
  0.00000000E+00  0.00000000E+00  0.00000000E+00
  0.00000000E+00  0.00000000E+00  0.00000000E+00
  0.00000000E+00  0.00000000E+00  0.00000000E+00
  0.00000000E+00  0.00000000E+00  0.00000000E+00
  0.00000000E+00  0.00000000E+00  0.00000000E+00
  0.00000000E+00  0.00000000E+00  0.00000000E+00
  0.00000000E+00  0.00000000E+00  0.00000000E+00
  0.00000000E+00  0.00000000E+00  0.00000000E+00
  0.00000000E+00  0.00000000E+00  0.00000000E+00
  0.00000000E+00  0.00000000E+00  0.00000000E+00
  0.00000000E+00  0.00000000E+00  0.00000000E+00
  0.00000000E+00  0.00000000E+00  0.00000000E+00
  0.00000000E+00  0.00000000E+00  0.00000000E+00
  0.00000000E+00  0.00000000E+00  0.00000000E+00
  0.00000000E+00  0.00000000E+00  0.00000000E+00
  0.00000000E+00  0.00000000E+00  0.00000000E+00
  0.00000000E+00  0.00000000E+00  0.00000000E+00
  0.00000000E+00  0.00000000E+00  0.00000000E+00
  0.00000000E+00  0.00000000E+00  0.00000000E+00
  0.00000000E+00  0.00000000E+00  0.00000000E+00
  0.00000000E+00  0.00000000E+00  0.00000000E+00
  0.00000000E+00  0.00000000E+00  0.00000000E+00
  0.00000000E+00  0.00000000E+00  0.00000000E+00
  0.00000000E+00  0.00000000E+00  0.00000000E+00
  0.00000000E+00  0.00000000E+00  0.00000000E+00
  0.00000000E+00  0.00000000E+00  0.00000000E+00
  0.00000000E+00  0.00000000E+00  0.00000000E+00
  0.00000000E+00  0.00000000E+00  0.00000000E+00
  0.00000000E+00  0.00000000E+00  0.00000000E+00
  0.00000000E+00  0.00000000E+00  0.00000000E+00
  0.00000000E+00  0.00000000E+00  0.00000000E+00
  0.00000000E+00  0.00000000E+00  0.00000000E+00
  0.00000000E+00  0.00000000E+00  0.00000000E+00
  0.00000000E+00  0.00000000E+00  0.00000000E+00
  0.00000000E+00  0.00000000E+00  0.00000000E+00
  0.00000000E+00  0.00000000E+00  0.00000000E+00
  0.00000000E+00  0.00000000E+00  0.00000000E+00
  0.00000000E+00  0.00000000E+00  0.00000000E+00
  0.00000000E+00  0.00000000E+00  0.00000000E+00
  0.00000000E+00  0.00000000E+00  0.00000000E+00
  0.00000000E+00  0.00000000E+00  0.00000000E+00
  0.00000000E+00  0.00000000E+00  0.00000000E+00
