Sodilite                                
   1.00000000000000     
     9.1320862202797564   -0.0134465904018226   -0.0134465915866771
    -0.0134465915866771    9.1320862202797564   -0.0134465904018226
    -0.0134465904018226   -0.0134465915866771    9.1320862202797564
   O    Na   Al   Si   Cl   K 
    24     5     6     6     2     3
Direct
  0.1491190206576944  0.4460015891946497  0.1584526119192307
  0.8656688003378362  0.5408544564330999  0.1418477683160643
  0.8483498880673138  0.4538159563253215  0.8386735974112804
  0.1335212231433924  0.5407266583787730  0.8548732096663735
  0.1584526119192307  0.1491190206576944  0.4460015891946497
  0.1418477683160643  0.8656688003378362  0.5408544564330999
  0.8386735974112804  0.8483498880673138  0.4538159563253215
  0.8548732096663735  0.1335212231433924  0.5407266583787730
  0.4460015891946497  0.1584526119192307  0.1491190206576944
  0.5408544564330999  0.1418477683160643  0.8656688003378362
  0.4538159563253215  0.8386735974112804  0.8483498880673138
  0.5407266583787730  0.8548732096663735  0.1335212231433924
  0.9526384080406199  0.6409498605242285  0.6499395715064133
  0.0496103021613720  0.3551267588852949  0.6509420929099337
  0.9457797405013790  0.3600212175460273  0.3497232146127956
  0.0505049025563726  0.6419466498722262  0.3441201531196604
  0.6409498605242285  0.6499395715064133  0.9526384080406199
  0.3551267588852949  0.6509420929099337  0.0496103021613720
  0.3600212175460273  0.3497232146127956  0.9457797405013790
  0.6419466498722262  0.3441201531196604  0.0505049025563726
  0.6499395715064133  0.9526384080406199  0.6409498605242285
  0.6509420929099337  0.0496103021613720  0.3551267588852949
  0.3497232146127956  0.9457797405013790  0.3600212175460273
  0.3441201531196604  0.0505049025563726  0.6419466498722262
  0.2060353521762760  0.2060353521762760  0.2060353521762760
  0.6801201885453142  0.6801201885453142  0.6801201885453142
  0.3124055332285030  0.3133917318895141  0.6854953900306379
  0.6854953900306379  0.3124055332285030  0.3133917318895141
  0.3133917318895141  0.6854953900306379  0.3124055332285030
  0.2489836749779102  0.4963058917623334  0.0012939863463898
  0.7478276609758201  0.4961359966390999 -0.0033949779688960
  0.0012939863463898  0.2489836749779102  0.4963058917623334
 -0.0033949779688960  0.7478276609758201  0.4961359966390999
  0.4963058917623334  0.0012939863463898  0.2489836749779102
  0.4961359966390999 -0.0033949779688960  0.7478276609758201
  0.2484293581878765  0.0020760189689923  0.4966695432621250
  0.7479814028467244 -0.0036262153373357  0.4969936208774429
  0.4966695432621250  0.2484293581878765  0.0020760189689923
  0.4969936208774429  0.7479814028467244 -0.0036262153373357
  0.0020760189689923  0.4966695432621250  0.2484293581878765
 -0.0036262153373357  0.4969936208774429  0.7479814028467244
  0.0415111223632484  0.0415111223632484  0.0415111223632483
  0.4972381869267817  0.4972381869267817  0.4972381869267817
  0.8305326294293669  0.8302931761373200  0.1640930756472021
  0.8302931761373200  0.1640930756472021  0.8305326294293669
  0.1640930756472021  0.8305326294293669  0.8302931761373200
 
  0.00000000E+00  0.00000000E+00  0.00000000E+00
  0.00000000E+00  0.00000000E+00  0.00000000E+00
  0.00000000E+00  0.00000000E+00  0.00000000E+00
  0.00000000E+00  0.00000000E+00  0.00000000E+00
  0.00000000E+00  0.00000000E+00  0.00000000E+00
  0.00000000E+00  0.00000000E+00  0.00000000E+00
  0.00000000E+00  0.00000000E+00  0.00000000E+00
  0.00000000E+00  0.00000000E+00  0.00000000E+00
  0.00000000E+00  0.00000000E+00  0.00000000E+00
  0.00000000E+00  0.00000000E+00  0.00000000E+00
  0.00000000E+00  0.00000000E+00  0.00000000E+00
  0.00000000E+00  0.00000000E+00  0.00000000E+00
  0.00000000E+00  0.00000000E+00  0.00000000E+00
  0.00000000E+00  0.00000000E+00  0.00000000E+00
  0.00000000E+00  0.00000000E+00  0.00000000E+00
  0.00000000E+00  0.00000000E+00  0.00000000E+00
  0.00000000E+00  0.00000000E+00  0.00000000E+00
  0.00000000E+00  0.00000000E+00  0.00000000E+00
  0.00000000E+00  0.00000000E+00  0.00000000E+00
  0.00000000E+00  0.00000000E+00  0.00000000E+00
  0.00000000E+00  0.00000000E+00  0.00000000E+00
  0.00000000E+00  0.00000000E+00  0.00000000E+00
  0.00000000E+00  0.00000000E+00  0.00000000E+00
  0.00000000E+00  0.00000000E+00  0.00000000E+00
  0.00000000E+00  0.00000000E+00  0.00000000E+00
  0.00000000E+00  0.00000000E+00  0.00000000E+00
  0.00000000E+00  0.00000000E+00  0.00000000E+00
  0.00000000E+00  0.00000000E+00  0.00000000E+00
  0.00000000E+00  0.00000000E+00  0.00000000E+00
  0.00000000E+00  0.00000000E+00  0.00000000E+00
  0.00000000E+00  0.00000000E+00  0.00000000E+00
  0.00000000E+00  0.00000000E+00  0.00000000E+00
  0.00000000E+00  0.00000000E+00  0.00000000E+00
  0.00000000E+00  0.00000000E+00  0.00000000E+00
  0.00000000E+00  0.00000000E+00  0.00000000E+00
  0.00000000E+00  0.00000000E+00  0.00000000E+00
  0.00000000E+00  0.00000000E+00  0.00000000E+00
  0.00000000E+00  0.00000000E+00  0.00000000E+00
  0.00000000E+00  0.00000000E+00  0.00000000E+00
  0.00000000E+00  0.00000000E+00  0.00000000E+00
  0.00000000E+00  0.00000000E+00  0.00000000E+00
  0.00000000E+00  0.00000000E+00  0.00000000E+00
  0.00000000E+00  0.00000000E+00  0.00000000E+00
  0.00000000E+00  0.00000000E+00  0.00000000E+00
  0.00000000E+00  0.00000000E+00  0.00000000E+00
  0.00000000E+00  0.00000000E+00  0.00000000E+00
