Sodilite                                
   1.00000000000000     
     9.2272220873532156    0.0132892588420568    0.0324484509815428
     0.0132824732567148    9.2266002963631468   -0.0117721877921759
     0.0324333424428892   -0.0117767330875560    9.2276499153746396
   O    Na   Al   Si   Cl   K 
    24     3     6     6     2     5
Direct
  0.1373472122321479  0.4676563153711872  0.1494333764836032
  0.8496216825614131  0.5374778406776570  0.1585735370324845
  0.8620353385433510  0.4681546216444283  0.8527862552897749
  0.1485152362757662  0.5480927316496357  0.8432376686471651
  0.1424592151971920  0.1380883123229083  0.4648496172827762
  0.1603101307154167  0.8529758374336860  0.5452232902166517
  0.8514975087264508  0.8673192756025015  0.4682922022293122
  0.8401305639808749  0.1545972560110263  0.5382653340182909
  0.4605526339809485  0.1641911636797935  0.1506040994273828
  0.5365475022826880  0.1490924398239772  0.8657994113592350
  0.4561634837884679  0.8443234942323731  0.8493162458164489
  0.5299088627321455  0.8587727294177893  0.1379550228467376
  0.9624217708865375  0.6429041307519261  0.6499329138885568
  0.0450567437193523  0.3579747481240575  0.6574257597105300
  0.9592905496580406  0.3603093317263250  0.3495632901773725
  0.0334048407863904  0.6486855754685465  0.3474966439188964
  0.6436660306647687  0.6597970503208984  0.9647004971456172
  0.3582772377945756  0.6532238211374912  0.0382527734610597
  0.3537078796148667  0.3493543476577012  0.9568970141829705
  0.6412155806046609  0.3520417919433635  0.0398068390599481
  0.6419467220263690  0.9693505731921280  0.6354833714834874
  0.6604189833673371  0.0443423830549228  0.3480227817390787
  0.3536247730065076  0.9682732861661127  0.3678390840782393
  0.3380559459933074  0.0503001985204597  0.6528257754584817
  0.2037895331903120  0.7978196806095215  0.7974125657622995
  0.3025324401563229  0.3026603740011390  0.6989533209205459
  0.6913536782769132  0.3066269753100810  0.3088602156131526
  0.2486364960477671  0.5045799617613725 -0.0013409541294613
  0.7482387302920482  0.5052401161211302  0.0022183554225218
 -0.0024422900979882  0.2550631616587353  0.5035283356398741
  0.0014333442710283  0.7555277456488345  0.5028364403983885
  0.4993917806901058  0.0088170405717286  0.2521585137176922
  0.4940135509558049  0.0045058620552117  0.7511429276937038
  0.2486149674212781  0.0035112385143898  0.5072591401822036
  0.7480512772555513  0.0090288601372021  0.4987582814800933
  0.4974025417470726  0.2546304617946593  0.0028794243583143
  0.4968298450564640  0.7551422381294660 -0.0019567753808454
 -0.0041558877339267  0.5042875444867710  0.2516646204382359
  0.0034575190599811  0.5046611688135441  0.7512154225314012
  0.0368495531558308 -0.0332485136221592 -0.0367712769806164
  0.4964578689380811  0.4358582273277105  0.5037060828471543
  0.1706718299886877  0.1742957816214601  0.1749332332402911
  0.8267204338143500  0.8306636457949570  0.1719767052590690
  0.8262480273912600  0.1748805181097451  0.8285421958842991
  0.6686726834369983  0.6694670636143887  0.6675247140197453
  0.3310556475464832  0.6686815916092171  0.3319157061278360
 
  0.00000000E+00  0.00000000E+00  0.00000000E+00
  0.00000000E+00  0.00000000E+00  0.00000000E+00
  0.00000000E+00  0.00000000E+00  0.00000000E+00
  0.00000000E+00  0.00000000E+00  0.00000000E+00
  0.00000000E+00  0.00000000E+00  0.00000000E+00
  0.00000000E+00  0.00000000E+00  0.00000000E+00
  0.00000000E+00  0.00000000E+00  0.00000000E+00
  0.00000000E+00  0.00000000E+00  0.00000000E+00
  0.00000000E+00  0.00000000E+00  0.00000000E+00
  0.00000000E+00  0.00000000E+00  0.00000000E+00
  0.00000000E+00  0.00000000E+00  0.00000000E+00
  0.00000000E+00  0.00000000E+00  0.00000000E+00
  0.00000000E+00  0.00000000E+00  0.00000000E+00
  0.00000000E+00  0.00000000E+00  0.00000000E+00
  0.00000000E+00  0.00000000E+00  0.00000000E+00
  0.00000000E+00  0.00000000E+00  0.00000000E+00
  0.00000000E+00  0.00000000E+00  0.00000000E+00
  0.00000000E+00  0.00000000E+00  0.00000000E+00
  0.00000000E+00  0.00000000E+00  0.00000000E+00
  0.00000000E+00  0.00000000E+00  0.00000000E+00
  0.00000000E+00  0.00000000E+00  0.00000000E+00
  0.00000000E+00  0.00000000E+00  0.00000000E+00
  0.00000000E+00  0.00000000E+00  0.00000000E+00
  0.00000000E+00  0.00000000E+00  0.00000000E+00
  0.00000000E+00  0.00000000E+00  0.00000000E+00
  0.00000000E+00  0.00000000E+00  0.00000000E+00
  0.00000000E+00  0.00000000E+00  0.00000000E+00
  0.00000000E+00  0.00000000E+00  0.00000000E+00
  0.00000000E+00  0.00000000E+00  0.00000000E+00
  0.00000000E+00  0.00000000E+00  0.00000000E+00
  0.00000000E+00  0.00000000E+00  0.00000000E+00
  0.00000000E+00  0.00000000E+00  0.00000000E+00
  0.00000000E+00  0.00000000E+00  0.00000000E+00
  0.00000000E+00  0.00000000E+00  0.00000000E+00
  0.00000000E+00  0.00000000E+00  0.00000000E+00
  0.00000000E+00  0.00000000E+00  0.00000000E+00
  0.00000000E+00  0.00000000E+00  0.00000000E+00
  0.00000000E+00  0.00000000E+00  0.00000000E+00
  0.00000000E+00  0.00000000E+00  0.00000000E+00
  0.00000000E+00  0.00000000E+00  0.00000000E+00
  0.00000000E+00  0.00000000E+00  0.00000000E+00
  0.00000000E+00  0.00000000E+00  0.00000000E+00
  0.00000000E+00  0.00000000E+00  0.00000000E+00
  0.00000000E+00  0.00000000E+00  0.00000000E+00
  0.00000000E+00  0.00000000E+00  0.00000000E+00
  0.00000000E+00  0.00000000E+00  0.00000000E+00
