Sodilite                                
   1.00000000000000     
     9.2120082644018080    0.0129938450686616    0.0057699278888820
     0.0129910563261149    9.2107602264593602    0.0062621059658613
     0.0057806335350573    0.0062815179310622    9.2312966413308946
   O    Na   Al   Si   Cl   K 
    24     3     6     6     2     5
Direct
  0.1474265596909500  0.4657446261624764  0.1545955445663745
  0.8588474719838745  0.5326984307965765  0.1524524015146622
  0.8572535193389079  0.4559436913992078  0.8450198464824344
  0.1411394088627413  0.5482390755435703  0.8513275592377405
  0.1401731888369297  0.1303312102528295  0.4646593096662568
  0.1673985946228086  0.8466943979641923  0.5469851433616882
  0.8598580706266840  0.8692218406514151  0.4712926603395477
  0.8378210388791224  0.1571782469951856  0.5459110211844770
  0.4655902827803208  0.1571882067341240  0.1446248568846647
  0.5489499922579910  0.1514277566479620  0.8601228160187261
  0.4561362146843294  0.8474646577700465  0.8549309817028232
  0.5318113826605492  0.8506685403443763  0.1428495834363936
  0.9635472629520014  0.6357418585649790  0.6467883534922565
  0.0499276742024086  0.3521411244156843  0.6610170396120576
  0.9694542096208090  0.3626785865119656  0.3551561486968585
  0.0348726485847332  0.6521253272632346  0.3431131023990214
  0.6529320719626746  0.6635580614369395  0.9636615678857005
  0.3663568225582757  0.6447320609302106  0.0346919314830398
  0.3493342752788329  0.3389030364789932  0.9542195612734311
  0.6350656276569020  0.3590800014947178  0.0344102367633390
  0.6462809972040924  0.9646033593107159  0.6382267661063845
  0.6617231438425420  0.0360770264259673  0.3522571508167877
  0.3537396839056061  0.9685948470896425  0.3652584024990251
  0.3430683781772801  0.0485932723548296  0.6512424778307760
  0.8028350345267512  0.1970920975925652  0.8008763533793033
  0.1979935896678234  0.8025629564203314  0.8019529245484119
  0.2934398142106008  0.2924718154477223  0.7077154339750309
  0.2516375385043608  0.4987542340414403 -0.0016484129298114
  0.7522835339071606  0.5033606796264967 -0.0020748394059202
  0.0004476889141128  0.2514472046376127  0.5068899628103215
  0.0065117792922354  0.7522768991369250  0.5032763118007035
  0.5027637521868032  0.0039622751978493  0.2520077356716650
  0.4991122865996564  0.0032427328208879  0.7517745164550307
  0.2514672724236465 -0.0004891203701798  0.5072168331827914
  0.7520351584545196  0.0067133335038908  0.5027395735340641
  0.4996682555440891  0.2518437265429805 -0.0018672314549186
  0.5020977520042220  0.7521065312651309 -0.0013591766316407
  0.0031833420115895  0.5030928917599542  0.2517040240592109
  0.0033372212087774  0.4984703988815560  0.7512995628888428
  0.0022682714725378  0.0020224277714875 -0.0698093359822926
  0.4618603677570976  0.4616380023267314  0.5419540596050633
  0.1676821131443135  0.1676914219391444  0.1690286109807850
  0.8344914921491071  0.8351488547094259  0.1661768480893455
  0.6733514303013445  0.6737430658921240  0.6712321066222103
  0.6720787548880892  0.3316278871549838  0.3278502864836449
  0.3307450296597959  0.6715904401610997  0.3282493890636918
 
  0.00000000E+00  0.00000000E+00  0.00000000E+00
  0.00000000E+00  0.00000000E+00  0.00000000E+00
  0.00000000E+00  0.00000000E+00  0.00000000E+00
  0.00000000E+00  0.00000000E+00  0.00000000E+00
  0.00000000E+00  0.00000000E+00  0.00000000E+00
  0.00000000E+00  0.00000000E+00  0.00000000E+00
  0.00000000E+00  0.00000000E+00  0.00000000E+00
  0.00000000E+00  0.00000000E+00  0.00000000E+00
  0.00000000E+00  0.00000000E+00  0.00000000E+00
  0.00000000E+00  0.00000000E+00  0.00000000E+00
  0.00000000E+00  0.00000000E+00  0.00000000E+00
  0.00000000E+00  0.00000000E+00  0.00000000E+00
  0.00000000E+00  0.00000000E+00  0.00000000E+00
  0.00000000E+00  0.00000000E+00  0.00000000E+00
  0.00000000E+00  0.00000000E+00  0.00000000E+00
  0.00000000E+00  0.00000000E+00  0.00000000E+00
  0.00000000E+00  0.00000000E+00  0.00000000E+00
  0.00000000E+00  0.00000000E+00  0.00000000E+00
  0.00000000E+00  0.00000000E+00  0.00000000E+00
  0.00000000E+00  0.00000000E+00  0.00000000E+00
  0.00000000E+00  0.00000000E+00  0.00000000E+00
  0.00000000E+00  0.00000000E+00  0.00000000E+00
  0.00000000E+00  0.00000000E+00  0.00000000E+00
  0.00000000E+00  0.00000000E+00  0.00000000E+00
  0.00000000E+00  0.00000000E+00  0.00000000E+00
  0.00000000E+00  0.00000000E+00  0.00000000E+00
  0.00000000E+00  0.00000000E+00  0.00000000E+00
  0.00000000E+00  0.00000000E+00  0.00000000E+00
  0.00000000E+00  0.00000000E+00  0.00000000E+00
  0.00000000E+00  0.00000000E+00  0.00000000E+00
  0.00000000E+00  0.00000000E+00  0.00000000E+00
  0.00000000E+00  0.00000000E+00  0.00000000E+00
  0.00000000E+00  0.00000000E+00  0.00000000E+00
  0.00000000E+00  0.00000000E+00  0.00000000E+00
  0.00000000E+00  0.00000000E+00  0.00000000E+00
  0.00000000E+00  0.00000000E+00  0.00000000E+00
  0.00000000E+00  0.00000000E+00  0.00000000E+00
  0.00000000E+00  0.00000000E+00  0.00000000E+00
  0.00000000E+00  0.00000000E+00  0.00000000E+00
  0.00000000E+00  0.00000000E+00  0.00000000E+00
  0.00000000E+00  0.00000000E+00  0.00000000E+00
  0.00000000E+00  0.00000000E+00  0.00000000E+00
  0.00000000E+00  0.00000000E+00  0.00000000E+00
  0.00000000E+00  0.00000000E+00  0.00000000E+00
  0.00000000E+00  0.00000000E+00  0.00000000E+00
  0.00000000E+00  0.00000000E+00  0.00000000E+00
