Sodilite                                
   1.00000000000000     
     9.0936815563338804    0.0143967172770278    0.0137221780454476
     0.0143920151537717    9.1078530534761359   -0.0158415656425500
     0.0137297859302681   -0.0158448665353898    9.0947846153293650
   O    Na   Al   Si   Cl   K 
    24     5     6     6     2     3
Direct
  0.1278088608649850  0.4574333355054235  0.1406872046411412
  0.8458650565846134  0.5587203812087219  0.1644651679345778
  0.8689925927781555  0.4589803663843341  0.8630449168424653
  0.1527887837619388  0.5557131787126192  0.8372008969301225
  0.1510971864666697  0.1426245797109205  0.4568141209439092
  0.1489354478469410  0.8582627243507189  0.5548782668055228
  0.8481176814671038  0.8599886705526335  0.4434958560719116
  0.8473811891218719  0.1416882487839188  0.5472146710911312
  0.4539664957044720  0.1516426810973711  0.1442858446369835
  0.5437224548249739  0.1536980474842647  0.8583863226843822
  0.4439217581374519  0.8497541421184952  0.8607051344313158
  0.5561035861571708  0.8505300851260260  0.1405529889758518
  0.9422054810531892  0.6476826434894767  0.6554148717802781
  0.0416125014496258  0.3643574874793717  0.6496294079573401
  0.9466095403952078  0.3549713255464317  0.3432758071780472
  0.0544390823822989  0.6365462029172667  0.3562571650302544
  0.6338303127457018  0.6476092254855395  0.9441801756396023
  0.3548125248012414  0.6574210214074810  0.0585966392395116
  0.3606978603462479  0.3553572369562453  0.9595855417008692
  0.6474273080728868  0.3459095054836918  0.0529384525799331
  0.6572080130725281  0.9456712855978786  0.6479716444156739
  0.6436205305880860  0.0532639581623224  0.3655975543771730
  0.3408111309563490  0.9449661650286914  0.3526914732786960
  0.3545799828037351  0.0440442726735509  0.6364107102217794
  0.8028040286873921  0.8059461087867931  0.1968362488141781
  0.1922709480743509  0.8082455383179022  0.8066935617034251
  0.6888331276576117  0.6900152049786259  0.6886757554201619
  0.6855831683705234  0.3169786192112586  0.3134922523448514
  0.3102675607989078  0.6895053621167097  0.3118417703130804
  0.2481836629463292  0.5074305735449957 -0.0004288275846805
  0.7483141372557208  0.5046599577681361  0.0061015022300122
 -0.0029470622846631  0.2522337703399271  0.4994757143943312
 -0.0027962165105138  0.7510466476012296  0.5018526546340711
  0.4979308827697076 -0.0012206654815694  0.2517439315643109
  0.5008488749336386 -0.0014227922395935  0.7516622610679057
  0.2485736027766981 -0.0022627785632988  0.4999556147183208
  0.7486249422493332 -0.0004169232071602  0.5013590138027966
  0.5010413872371280  0.2522437312618678  0.0036813160093904
  0.4974599485439166  0.7513955546896877  0.0017440740716526
 -0.0061962214651528  0.5031675978565918  0.2513665681861467
  0.0007481042821576  0.5072413660801746  0.7516560311839475
 -0.0026951454253560 -0.0790401177290589  0.0024869025595084
  0.5334103265673223  0.5397290435065412  0.4664024393678695
  0.1594835994303928  0.1616461451333704  0.1603490969711965
  0.8402938346046309  0.1627943232162159  0.8411902379318070
  0.3434071461164774  0.3432469615472567  0.6575810449072432
 
  0.00000000E+00  0.00000000E+00  0.00000000E+00
  0.00000000E+00  0.00000000E+00  0.00000000E+00
  0.00000000E+00  0.00000000E+00  0.00000000E+00
  0.00000000E+00  0.00000000E+00  0.00000000E+00
  0.00000000E+00  0.00000000E+00  0.00000000E+00
  0.00000000E+00  0.00000000E+00  0.00000000E+00
  0.00000000E+00  0.00000000E+00  0.00000000E+00
  0.00000000E+00  0.00000000E+00  0.00000000E+00
  0.00000000E+00  0.00000000E+00  0.00000000E+00
  0.00000000E+00  0.00000000E+00  0.00000000E+00
  0.00000000E+00  0.00000000E+00  0.00000000E+00
  0.00000000E+00  0.00000000E+00  0.00000000E+00
  0.00000000E+00  0.00000000E+00  0.00000000E+00
  0.00000000E+00  0.00000000E+00  0.00000000E+00
  0.00000000E+00  0.00000000E+00  0.00000000E+00
  0.00000000E+00  0.00000000E+00  0.00000000E+00
  0.00000000E+00  0.00000000E+00  0.00000000E+00
  0.00000000E+00  0.00000000E+00  0.00000000E+00
  0.00000000E+00  0.00000000E+00  0.00000000E+00
  0.00000000E+00  0.00000000E+00  0.00000000E+00
  0.00000000E+00  0.00000000E+00  0.00000000E+00
  0.00000000E+00  0.00000000E+00  0.00000000E+00
  0.00000000E+00  0.00000000E+00  0.00000000E+00
  0.00000000E+00  0.00000000E+00  0.00000000E+00
  0.00000000E+00  0.00000000E+00  0.00000000E+00
  0.00000000E+00  0.00000000E+00  0.00000000E+00
  0.00000000E+00  0.00000000E+00  0.00000000E+00
  0.00000000E+00  0.00000000E+00  0.00000000E+00
  0.00000000E+00  0.00000000E+00  0.00000000E+00
  0.00000000E+00  0.00000000E+00  0.00000000E+00
  0.00000000E+00  0.00000000E+00  0.00000000E+00
  0.00000000E+00  0.00000000E+00  0.00000000E+00
  0.00000000E+00  0.00000000E+00  0.00000000E+00
  0.00000000E+00  0.00000000E+00  0.00000000E+00
  0.00000000E+00  0.00000000E+00  0.00000000E+00
  0.00000000E+00  0.00000000E+00  0.00000000E+00
  0.00000000E+00  0.00000000E+00  0.00000000E+00
  0.00000000E+00  0.00000000E+00  0.00000000E+00
  0.00000000E+00  0.00000000E+00  0.00000000E+00
  0.00000000E+00  0.00000000E+00  0.00000000E+00
  0.00000000E+00  0.00000000E+00  0.00000000E+00
  0.00000000E+00  0.00000000E+00  0.00000000E+00
  0.00000000E+00  0.00000000E+00  0.00000000E+00
  0.00000000E+00  0.00000000E+00  0.00000000E+00
  0.00000000E+00  0.00000000E+00  0.00000000E+00
  0.00000000E+00  0.00000000E+00  0.00000000E+00
