Sodilite                                
   1.00000000000000     
     9.2275045997981291    0.0144288161870543    0.0129475848341623
     0.0144374009016739    9.2274365288836915   -0.0353410100218779
     0.0129551161125018   -0.0353258660653865    9.2278588376037423
   O    Na   Al   Si   Cl   K 
    24     3     6     6     2     5
Direct
  0.1421069920051454  0.4548978808954913  0.1574351903191089
  0.8571699919440197  0.5376739400202448  0.1498528562171142
  0.8512937459801388  0.4665090309321753  0.8474642526122350
  0.1397256641396058  0.5407000969131115  0.8495438855562674
  0.1506946105930664  0.1462781647376713  0.4568047444574309
  0.1480420723838736  0.8587491921532743  0.5398486542142389
  0.8402354219428241  0.8562696287399822  0.4646253932998537
  0.8468729725412957  0.1416691385524315  0.5383125928249991
  0.4496411028335729  0.1619408354874001  0.1528146978807513
  0.5318441830602708  0.1464077218179045  0.8677963704557189
  0.4555930773396082  0.8395449672570368  0.8479896089661356
  0.5307231439869772  0.8580379136688721  0.1354838888743089
  0.9624665742685914  0.6504283700409572  0.6586352537723148
  0.0323105626446539  0.3627278719069081  0.6493095911069784
  0.9518649570985738  0.3513806615635603  0.3430911239396197
  0.0318693593836732  0.6378256885970980  0.3528378543219255
  0.6327000098670752  0.6485041948380491  0.9682592091985971
  0.3454097697837406  0.6598303177530085  0.0383240504525991
  0.3620599020816729  0.3576202153181043  0.9648016644488999
  0.6471205787342480  0.3395874084946013  0.0452845078222098
  0.6412489421766320  0.9700301530814626  0.6379100466797947
  0.6557391842109533  0.0439031621743638  0.3492888581420797
  0.3510084208178769  0.9634492160386677  0.3658376948489958
  0.3358488533693647  0.0395127495945935  0.6506264525405491
  0.1971695354751713  0.1973313536278336  0.1988284677484003
  0.1932771179593382  0.8088023355179579  0.8090195157986989
  0.7020147174922786  0.2963461793975306  0.2975670703611815
  0.2449416018328803  0.5024486684186434  0.0035292050344794
  0.7444730818948333  0.4985241275896334  0.0028464688235326
 -0.0045820023769440  0.2513472572038988  0.4985593892198747
 -0.0052033284923237  0.7517531823380598  0.5022687915700427
  0.4955352181030473  0.0060232851308317  0.2511430517070982
  0.4911877807175549  0.0005925786211826  0.7521582329350517
  0.2453993821632391  0.0026012752531944  0.5028992602364479
  0.7449041573245696  0.0031896148597143  0.4979932161286774
  0.4965260737723730  0.2513868365259247  0.0073165038328246
  0.4909248067112154  0.7519229695859817 -0.0012624845426195
 -0.0046774432354329  0.4964410977989603  0.2511627823297194
 -0.0042973792316259  0.5042031639802617  0.7516802720311747
  0.0640938322337626  0.0037360774092241  0.0039068768868301
  0.5330476467970033  0.4631553108312271  0.4632384073004978
  0.8305214328962595  0.8313842930581634  0.1675284350810326
  0.8313189375252059  0.1689032435350398  0.8319178990257338
  0.6692440651767262  0.6732116762497612  0.6719856229265867
  0.3255610199702168  0.3293493223064324  0.6749678229918976
  0.3250296521031946  0.6738676301835722  0.3285667496201098
 
  0.00000000E+00  0.00000000E+00  0.00000000E+00
  0.00000000E+00  0.00000000E+00  0.00000000E+00
  0.00000000E+00  0.00000000E+00  0.00000000E+00
  0.00000000E+00  0.00000000E+00  0.00000000E+00
  0.00000000E+00  0.00000000E+00  0.00000000E+00
  0.00000000E+00  0.00000000E+00  0.00000000E+00
  0.00000000E+00  0.00000000E+00  0.00000000E+00
  0.00000000E+00  0.00000000E+00  0.00000000E+00
  0.00000000E+00  0.00000000E+00  0.00000000E+00
  0.00000000E+00  0.00000000E+00  0.00000000E+00
  0.00000000E+00  0.00000000E+00  0.00000000E+00
  0.00000000E+00  0.00000000E+00  0.00000000E+00
  0.00000000E+00  0.00000000E+00  0.00000000E+00
  0.00000000E+00  0.00000000E+00  0.00000000E+00
  0.00000000E+00  0.00000000E+00  0.00000000E+00
  0.00000000E+00  0.00000000E+00  0.00000000E+00
  0.00000000E+00  0.00000000E+00  0.00000000E+00
  0.00000000E+00  0.00000000E+00  0.00000000E+00
  0.00000000E+00  0.00000000E+00  0.00000000E+00
  0.00000000E+00  0.00000000E+00  0.00000000E+00
  0.00000000E+00  0.00000000E+00  0.00000000E+00
  0.00000000E+00  0.00000000E+00  0.00000000E+00
  0.00000000E+00  0.00000000E+00  0.00000000E+00
  0.00000000E+00  0.00000000E+00  0.00000000E+00
  0.00000000E+00  0.00000000E+00  0.00000000E+00
  0.00000000E+00  0.00000000E+00  0.00000000E+00
  0.00000000E+00  0.00000000E+00  0.00000000E+00
  0.00000000E+00  0.00000000E+00  0.00000000E+00
  0.00000000E+00  0.00000000E+00  0.00000000E+00
  0.00000000E+00  0.00000000E+00  0.00000000E+00
  0.00000000E+00  0.00000000E+00  0.00000000E+00
  0.00000000E+00  0.00000000E+00  0.00000000E+00
  0.00000000E+00  0.00000000E+00  0.00000000E+00
  0.00000000E+00  0.00000000E+00  0.00000000E+00
  0.00000000E+00  0.00000000E+00  0.00000000E+00
  0.00000000E+00  0.00000000E+00  0.00000000E+00
  0.00000000E+00  0.00000000E+00  0.00000000E+00
  0.00000000E+00  0.00000000E+00  0.00000000E+00
  0.00000000E+00  0.00000000E+00  0.00000000E+00
  0.00000000E+00  0.00000000E+00  0.00000000E+00
  0.00000000E+00  0.00000000E+00  0.00000000E+00
  0.00000000E+00  0.00000000E+00  0.00000000E+00
  0.00000000E+00  0.00000000E+00  0.00000000E+00
  0.00000000E+00  0.00000000E+00  0.00000000E+00
  0.00000000E+00  0.00000000E+00  0.00000000E+00
  0.00000000E+00  0.00000000E+00  0.00000000E+00
