Sodilite                                
   1.00000000000000     
     9.2274345160736431    0.0353189725140596    0.0144289541375582
     0.0353037975629807    9.2278533724832421   -0.0129397717523628
     0.0144203395169091   -0.0129322047038649    9.2275206541718422
   O    Na   Al   Si   Cl   K 
    24     3     6     6     2     5
Direct
  0.1437305839979197  0.4646243395039230  0.1597636865083217
  0.8583310898366097  0.5383113569644556  0.1531260864585397
  0.8537219882228604  0.4568032339427631  0.8493051128040138
  0.1412511093953863  0.5398509534096547  0.8519573242452463
  0.1419632310153892  0.1354852917883774  0.4692763098606885
  0.1604541977498878  0.8479900507725260  0.5444094893962137
  0.8535909140623298  0.8677947816779634  0.4681546185839593
  0.8380600171641390  0.1528141235282355  0.5503587804354541
  0.4623273329991801  0.1498529357178920  0.1428309404141460
  0.5451032771870149  0.1574349379415186  0.8578936737988001
  0.4592982096474840  0.8495431432239795  0.8602741407153039
  0.5334911267650018  0.8474648385352416  0.1487059941174612
  0.9604860714364778  0.6506252737171921  0.6641493020607908
  0.0365514340115626  0.3658365944132537  0.6489924340752349
  0.9560951359936234  0.3492899566521813  0.3442609112919115
  0.0299705100309624  0.6379112251996066  0.3587492002851698
  0.6372724610625370  0.6493097956914741  0.9676885450886344
  0.3495713139395865  0.6586350420241475  0.0375341433428950
  0.3621743596650492  0.3528371756901684  0.9681303745180999
  0.6486208872684047  0.3430891825751943  0.0481356052210684
  0.6423807342836180  0.9648025409910548  0.6379404672343849
  0.6604126747319682  0.0452868904063340  0.3528796855137159
  0.3514946056433156  0.9682572132407378  0.3672984612640929
  0.3401717161436977  0.0383244781602769  0.6545881301989681
  0.8026728152605227  0.1988239146747826  0.8028342814393190
  0.1911945189352655  0.8090224848034419  0.8067244806943532
  0.7036515950763883  0.2975699728070968  0.2979871609629249
  0.2482461526570954  0.5022685296824635  0.0052026833930562
  0.7486536374671845  0.4985584316229600  0.0045808823251219
 -0.0060223629156827  0.2511430262551618  0.5044648025111536
 -0.0005929300381098  0.7521580114915911  0.5088107549656228
  0.5014755920870008  0.0028456607924704  0.2555258356921239
  0.4975520728826183  0.0035289763957289  0.7550576374816698
  0.2480774199709109 -0.0012624860851432  0.5090741988085833
  0.7486135813470808  0.0073161563698038  0.5034736395118299
  0.5035594227930936  0.2511621686169780  0.0046776606343729
  0.4957970173042754  0.7516801445934798  0.0042974150186883
 -0.0031891862101985  0.4979933342789920  0.2550947625359593
 -0.0026009872696492  0.5028986607110960  0.7546000665288645
 -0.0037386044459968  0.0039096692352770 -0.0640930406467319
  0.5368429684580436  0.4632403105764023  0.4669556279531704
  0.1686158772881778  0.1675294428068215  0.1694792693284125
  0.8310963027598398  0.8319169900761327  0.1686814317691281
  0.6706515074202561  0.6749684437469378  0.6744401851255337
  0.3261307280914856  0.3285660623095670  0.6749710668624352
  0.3267878788263916  0.6719867384698052  0.3307557796712931
 
  0.00000000E+00  0.00000000E+00  0.00000000E+00
  0.00000000E+00  0.00000000E+00  0.00000000E+00
  0.00000000E+00  0.00000000E+00  0.00000000E+00
  0.00000000E+00  0.00000000E+00  0.00000000E+00
  0.00000000E+00  0.00000000E+00  0.00000000E+00
  0.00000000E+00  0.00000000E+00  0.00000000E+00
  0.00000000E+00  0.00000000E+00  0.00000000E+00
  0.00000000E+00  0.00000000E+00  0.00000000E+00
  0.00000000E+00  0.00000000E+00  0.00000000E+00
  0.00000000E+00  0.00000000E+00  0.00000000E+00
  0.00000000E+00  0.00000000E+00  0.00000000E+00
  0.00000000E+00  0.00000000E+00  0.00000000E+00
  0.00000000E+00  0.00000000E+00  0.00000000E+00
  0.00000000E+00  0.00000000E+00  0.00000000E+00
  0.00000000E+00  0.00000000E+00  0.00000000E+00
  0.00000000E+00  0.00000000E+00  0.00000000E+00
  0.00000000E+00  0.00000000E+00  0.00000000E+00
  0.00000000E+00  0.00000000E+00  0.00000000E+00
  0.00000000E+00  0.00000000E+00  0.00000000E+00
  0.00000000E+00  0.00000000E+00  0.00000000E+00
  0.00000000E+00  0.00000000E+00  0.00000000E+00
  0.00000000E+00  0.00000000E+00  0.00000000E+00
  0.00000000E+00  0.00000000E+00  0.00000000E+00
  0.00000000E+00  0.00000000E+00  0.00000000E+00
  0.00000000E+00  0.00000000E+00  0.00000000E+00
  0.00000000E+00  0.00000000E+00  0.00000000E+00
  0.00000000E+00  0.00000000E+00  0.00000000E+00
  0.00000000E+00  0.00000000E+00  0.00000000E+00
  0.00000000E+00  0.00000000E+00  0.00000000E+00
  0.00000000E+00  0.00000000E+00  0.00000000E+00
  0.00000000E+00  0.00000000E+00  0.00000000E+00
  0.00000000E+00  0.00000000E+00  0.00000000E+00
  0.00000000E+00  0.00000000E+00  0.00000000E+00
  0.00000000E+00  0.00000000E+00  0.00000000E+00
  0.00000000E+00  0.00000000E+00  0.00000000E+00
  0.00000000E+00  0.00000000E+00  0.00000000E+00
  0.00000000E+00  0.00000000E+00  0.00000000E+00
  0.00000000E+00  0.00000000E+00  0.00000000E+00
  0.00000000E+00  0.00000000E+00  0.00000000E+00
  0.00000000E+00  0.00000000E+00  0.00000000E+00
  0.00000000E+00  0.00000000E+00  0.00000000E+00
  0.00000000E+00  0.00000000E+00  0.00000000E+00
  0.00000000E+00  0.00000000E+00  0.00000000E+00
  0.00000000E+00  0.00000000E+00  0.00000000E+00
  0.00000000E+00  0.00000000E+00  0.00000000E+00
  0.00000000E+00  0.00000000E+00  0.00000000E+00
