Sodilite                                
   1.00000000000000     
     9.2882274589809981    0.0203959933412131   -0.0203959933412131
     0.0203959933412131    9.2882274589809981    0.0203959933412131
    -0.0203959933412132    0.0203959933412132    9.2882274589809981
   O    Na   Al   Si   Cl   K 
    24     2     6     6     2     6
Direct
  0.1500800603733466  0.4667949750215768  0.1588543086124187
  0.8629379957711673  0.5283626304983992  0.1527410821731580
  0.8528539223932895  0.4621448880772141  0.8442877991132163
  0.1416817762862531  0.5266517963752054  0.8540364649081950
  0.1527410821731581  0.1370620042288332  0.4716373695016012
  0.1588543086124187  0.8499199396266535  0.5332050249784231
  0.8540364649081950  0.8583182237137467  0.4733482036247943
  0.8442877991132163  0.1471460776067103  0.5378551119227853
  0.4733482036247943  0.1459635350918054  0.1416817762862531
  0.5378551119227853  0.1557122008867836  0.8528539223932895
  0.4716373695016012  0.8472589178268415  0.8629379957711673
  0.5332050249784231  0.8411456913875813  0.1500800603733466
  0.9716373695016008  0.6370620042288327  0.6527410821731585
  0.0332050249784233  0.3499199396266534  0.6588543086124187
  0.9733482036247946  0.3583182237137469  0.3540364649081943
  0.0378551119227857  0.6471460776067105  0.3442877991132165
  0.6416817762862533  0.6459635350918050  0.9733482036247946
  0.3528539223932896  0.6557122008867837  0.0378551119227857
  0.3629379957711666  0.3472589178268417  0.9716373695016007
  0.6500800603733465  0.3411456913875816  0.0332050249784233
  0.6588543086124187  0.9667949750215769  0.6500800603733465
  0.6527410821731585  0.0283626304983988  0.3629379957711666
  0.3442877991132165  0.9621448880772147  0.3528539223932896
  0.3540364649081943  0.0266517963752055  0.6416817762862533
  0.7995252814009581  0.2004747185990419  0.7995252814009581
  0.2995252814009581  0.7004747185990419  0.2995252814009581
  0.2534020056951252  0.4978860016203542  0.0049274931018760
  0.7534020056951252  0.4950725068981240  0.0021139983796458
  0.0021139983796458  0.2465979943048749  0.5049274931018758
  0.0049274931018760  0.7465979943048748  0.5021139983796457
  0.5021139983796457 -0.0049274931018760  0.2534020056951252
  0.5049274931018758 -0.0021139983796458  0.7534020056951252
  0.2531163497251185 -0.0058187034614268  0.5007873752426605
  0.7531163497251184 -0.0007873752426603  0.5058187034614269
  0.5058187034614269  0.2468836502748817  0.0007873752426603
  0.5007873752426605  0.7468836502748816  0.0058187034614268
  0.0058187034614268  0.4992126247573398  0.2531163497251185
  0.0007873752426603  0.4941812965385730  0.7531163497251184
 -0.0316182716863794  0.0316182716863794 -0.0316182716863794
  0.4683817283136206  0.5316182716863795  0.4683817283136206
  0.1774093313117756  0.1751188810806169  0.1761174947897615
  0.8248811189193829  0.8238825052102385  0.1774093313117756
  0.1761174947897615  0.8225906686882246  0.8248811189193829
  0.6761174947897615  0.6751188810806171  0.6774093313117754
  0.3248811189193831  0.3225906686882242  0.6761174947897615
  0.6774093313117754  0.3238825052102383  0.3248811189193831
 
  0.00000000E+00  0.00000000E+00  0.00000000E+00
  0.00000000E+00  0.00000000E+00  0.00000000E+00
  0.00000000E+00  0.00000000E+00  0.00000000E+00
  0.00000000E+00  0.00000000E+00  0.00000000E+00
  0.00000000E+00  0.00000000E+00  0.00000000E+00
  0.00000000E+00  0.00000000E+00  0.00000000E+00
  0.00000000E+00  0.00000000E+00  0.00000000E+00
  0.00000000E+00  0.00000000E+00  0.00000000E+00
  0.00000000E+00  0.00000000E+00  0.00000000E+00
  0.00000000E+00  0.00000000E+00  0.00000000E+00
  0.00000000E+00  0.00000000E+00  0.00000000E+00
  0.00000000E+00  0.00000000E+00  0.00000000E+00
  0.00000000E+00  0.00000000E+00  0.00000000E+00
  0.00000000E+00  0.00000000E+00  0.00000000E+00
  0.00000000E+00  0.00000000E+00  0.00000000E+00
  0.00000000E+00  0.00000000E+00  0.00000000E+00
  0.00000000E+00  0.00000000E+00  0.00000000E+00
  0.00000000E+00  0.00000000E+00  0.00000000E+00
  0.00000000E+00  0.00000000E+00  0.00000000E+00
  0.00000000E+00  0.00000000E+00  0.00000000E+00
  0.00000000E+00  0.00000000E+00  0.00000000E+00
  0.00000000E+00  0.00000000E+00  0.00000000E+00
  0.00000000E+00  0.00000000E+00  0.00000000E+00
  0.00000000E+00  0.00000000E+00  0.00000000E+00
  0.00000000E+00  0.00000000E+00  0.00000000E+00
  0.00000000E+00  0.00000000E+00  0.00000000E+00
  0.00000000E+00  0.00000000E+00  0.00000000E+00
  0.00000000E+00  0.00000000E+00  0.00000000E+00
  0.00000000E+00  0.00000000E+00  0.00000000E+00
  0.00000000E+00  0.00000000E+00  0.00000000E+00
  0.00000000E+00  0.00000000E+00  0.00000000E+00
  0.00000000E+00  0.00000000E+00  0.00000000E+00
  0.00000000E+00  0.00000000E+00  0.00000000E+00
  0.00000000E+00  0.00000000E+00  0.00000000E+00
  0.00000000E+00  0.00000000E+00  0.00000000E+00
  0.00000000E+00  0.00000000E+00  0.00000000E+00
  0.00000000E+00  0.00000000E+00  0.00000000E+00
  0.00000000E+00  0.00000000E+00  0.00000000E+00
  0.00000000E+00  0.00000000E+00  0.00000000E+00
  0.00000000E+00  0.00000000E+00  0.00000000E+00
  0.00000000E+00  0.00000000E+00  0.00000000E+00
  0.00000000E+00  0.00000000E+00  0.00000000E+00
  0.00000000E+00  0.00000000E+00  0.00000000E+00
  0.00000000E+00  0.00000000E+00  0.00000000E+00
  0.00000000E+00  0.00000000E+00  0.00000000E+00
  0.00000000E+00  0.00000000E+00  0.00000000E+00
