Sodilite                                
   1.00000000000000     
     9.1321276875498949   -0.0136868531604205    0.0136868486968742
    -0.0136868486968742    9.1321276875498949    0.0136868531604205
     0.0136868531604205    0.0136868486968742    9.1321276875498949
   O    Na   Al   Si   Cl   K 
    24     5     6     6     2     3
Direct
  0.1448556912031369  0.4503808671219721  0.1509276412485869
  0.8590238520078167  0.5473770943944060  0.1499567967017381
  0.8580500630742038  0.4494864608018302  0.8441426940605058
  0.1399938592194507  0.5542307776901043  0.8497070004111643
  0.1502929995888354  0.1399938592194507  0.4457692223098960
  0.1558573059394940  0.8580500630742038  0.5505135391981700
  0.8500432032982618  0.8590238520078167  0.4526229056055942
  0.8490723587514131  0.1448556912031369  0.5496191328780278
  0.4494864608018302  0.1558573059394940  0.1419499369257961
  0.5542307776901043  0.1502929995888354  0.8600061407805490
  0.4503808671219721  0.8490723587514131  0.8551443087968633
  0.5473770943944060  0.8500432032982618  0.1409761479921831
  0.9591267918267304  0.6343080932458836  0.6418388565692500
  0.0539804217438295  0.3508524616646505  0.6584815400331863
  0.9592714220334173  0.3664876378543920  0.3548886485218435
  0.0462105569460457  0.6516698320226681  0.3386543262858582
  0.6516698320226681  0.6613456737141413  0.9537894430539539
  0.3664876378543920  0.6451113514781566  0.0407285779665824
  0.3508524616646505  0.3415184599668135  0.9460195782561707
  0.6343080932458836  0.3581611434307501  0.0408732081732694
  0.6451113514781566  0.9592714220334173  0.6335123621456086
  0.6613456737141413  0.0462105569460457  0.3483301679773320
  0.3581611434307501  0.9591267918267304  0.3656919067541166
  0.3415184599668135  0.0539804217438295  0.6491475383353490
  0.1866009904137585  0.1875871706786860  0.1854315122373663
  0.8199326436650257  0.8199326436650257  0.1800673563349746
  0.8145684877626340  0.1866009904137585  0.8124128293213142
  0.1875871706786860  0.8145684877626340  0.8133990095862416
  0.2939267608092383  0.2939267608092383  0.7060732391907615
  0.2510097051048406  0.4987078602159656 -0.0037119198790457
  0.7521687960074276  0.5034108724869412 -0.0038510636289222
  0.0037119198790457  0.2510097051048406  0.5012921397840344
  0.0038510636289222  0.7521687960074276  0.4965891275130588
  0.5034108724869412  0.0038510636289222  0.2478312039925727
  0.4987078602159656  0.0037119198790457  0.7489902948951594
  0.2515658409187712  0.0033370711394945  0.5020860156294487
  0.7520220616599972  0.0029995182419239  0.4963641426188778
  0.4979139843705519  0.2515658409187712 -0.0033370711394945
  0.5036358573811225  0.7520220616599972 -0.0029995182419239
  0.0029995182419239  0.5036358573811225  0.2479779383400030
  0.0033370711394945  0.4979139843705519  0.7484341590812292
  0.0028058000352465  0.0028058000352465 -0.0028058000352465
  0.4584562056183245  0.4584562056183245  0.5415437943816755
  0.6696916921341416  0.6694627283137883  0.6640754094842491
  0.6694627283137883  0.3359245905157508  0.3303083078658585
  0.3359245905157508  0.6696916921341416  0.3305372716862117
 
  0.00000000E+00  0.00000000E+00  0.00000000E+00
  0.00000000E+00  0.00000000E+00  0.00000000E+00
  0.00000000E+00  0.00000000E+00  0.00000000E+00
  0.00000000E+00  0.00000000E+00  0.00000000E+00
  0.00000000E+00  0.00000000E+00  0.00000000E+00
  0.00000000E+00  0.00000000E+00  0.00000000E+00
  0.00000000E+00  0.00000000E+00  0.00000000E+00
  0.00000000E+00  0.00000000E+00  0.00000000E+00
  0.00000000E+00  0.00000000E+00  0.00000000E+00
  0.00000000E+00  0.00000000E+00  0.00000000E+00
  0.00000000E+00  0.00000000E+00  0.00000000E+00
  0.00000000E+00  0.00000000E+00  0.00000000E+00
  0.00000000E+00  0.00000000E+00  0.00000000E+00
  0.00000000E+00  0.00000000E+00  0.00000000E+00
  0.00000000E+00  0.00000000E+00  0.00000000E+00
  0.00000000E+00  0.00000000E+00  0.00000000E+00
  0.00000000E+00  0.00000000E+00  0.00000000E+00
  0.00000000E+00  0.00000000E+00  0.00000000E+00
  0.00000000E+00  0.00000000E+00  0.00000000E+00
  0.00000000E+00  0.00000000E+00  0.00000000E+00
  0.00000000E+00  0.00000000E+00  0.00000000E+00
  0.00000000E+00  0.00000000E+00  0.00000000E+00
  0.00000000E+00  0.00000000E+00  0.00000000E+00
  0.00000000E+00  0.00000000E+00  0.00000000E+00
  0.00000000E+00  0.00000000E+00  0.00000000E+00
  0.00000000E+00  0.00000000E+00  0.00000000E+00
  0.00000000E+00  0.00000000E+00  0.00000000E+00
  0.00000000E+00  0.00000000E+00  0.00000000E+00
  0.00000000E+00  0.00000000E+00  0.00000000E+00
  0.00000000E+00  0.00000000E+00  0.00000000E+00
  0.00000000E+00  0.00000000E+00  0.00000000E+00
  0.00000000E+00  0.00000000E+00  0.00000000E+00
  0.00000000E+00  0.00000000E+00  0.00000000E+00
  0.00000000E+00  0.00000000E+00  0.00000000E+00
  0.00000000E+00  0.00000000E+00  0.00000000E+00
  0.00000000E+00  0.00000000E+00  0.00000000E+00
  0.00000000E+00  0.00000000E+00  0.00000000E+00
  0.00000000E+00  0.00000000E+00  0.00000000E+00
  0.00000000E+00  0.00000000E+00  0.00000000E+00
  0.00000000E+00  0.00000000E+00  0.00000000E+00
  0.00000000E+00  0.00000000E+00  0.00000000E+00
  0.00000000E+00  0.00000000E+00  0.00000000E+00
  0.00000000E+00  0.00000000E+00  0.00000000E+00
  0.00000000E+00  0.00000000E+00  0.00000000E+00
  0.00000000E+00  0.00000000E+00  0.00000000E+00
  0.00000000E+00  0.00000000E+00  0.00000000E+00
