Sodilite                                
   1.00000000000000     
     9.0362803847197366    0.0295966260993492   -0.0295966260993492
     0.0295966260993492    9.0362803847197366   -0.0295966260993492
    -0.0295966260993492   -0.0295966260993492    9.0362803847197366
   O    Na   Al   Si   Cl   K 
    24     6     6     6     2     2
Direct
  0.1442950874283132  0.4372951701646984  0.1592729199785956
  0.8640510803508341  0.5498690988973743  0.1470754910117042
  0.8513408614287989  0.4392852743838679  0.8478962510814094
  0.1332776205815364  0.5540228584733663  0.8565752777251078
  0.1434247222748925  0.1332776205815364  0.4459771415266334
  0.1521037489185907  0.8513408614287989  0.5607147256161324
  0.8529245089882961  0.8640510803508341  0.4501309011026257
  0.8407270800214045  0.1442950874283132  0.5627048298353019
  0.4392852743838679  0.1521037489185907  0.1486591385712008
  0.5540228584733663  0.1434247222748925  0.8667223794184631
  0.4372951701646984  0.8407270800214045  0.8557049125716868
  0.5498690988973743  0.8529245089882961  0.1359489196491658
  0.9372951701646981  0.6442950874283132  0.6592729199785955
  0.0498690988973744  0.3640510803508345  0.6470754910117039
  0.9392852743838676  0.3513408614287993  0.3478962510814092
  0.0540228584733666  0.6332776205815369  0.3565752777251074
  0.6332776205815369  0.6434247222748922  0.9459771415266337
  0.3513408614287993  0.6521037489185906  0.0607147256161323
  0.3640510803508345  0.3529245089882957  0.9501309011026257
  0.6442950874283132  0.3407270800214044  0.0627048298353017
  0.6521037489185906  0.9392852743838676  0.6486591385712011
  0.6434247222748922  0.0540228584733666  0.3667223794184635
  0.3407270800214044  0.9372951701646981  0.3557049125716867
  0.3529245089882957  0.0498690988973744  0.6359489196491659
  0.1840556542148084  0.1824474546035577  0.1866453842655429
  0.8133546157344571  0.1840556542148084  0.8175525453964421
  0.1824474546035577  0.8133546157344571  0.8159443457851916
  0.6824474546035579  0.6840556542148084  0.6866453842655429
  0.6840556542148084  0.3133546157344572  0.3175525453964422
  0.3133546157344572  0.6824474546035579  0.3159443457851914
  0.2464421907462129  0.4970835424804971  0.0058964056165361
  0.7464421907462128  0.4941035943834640  0.0029164575195029
 -0.0058964056165361  0.2464421907462129  0.5029164575195029
 -0.0029164575195029  0.7464421907462128  0.5058964056165360
  0.4941035943834640 -0.0029164575195029  0.2535578092537870
  0.4970835424804971 -0.0058964056165361  0.7535578092537872
  0.2465524352023488 -0.0069426511325206  0.5009312629427195
  0.7465524352023485 -0.0009312629427192  0.5069426511325205
  0.4990687370572812  0.2465524352023488  0.0069426511325206
  0.4930573488674795  0.7465524352023485  0.0009312629427192
 -0.0009312629427192  0.4930573488674795  0.2534475647976512
 -0.0069426511325206  0.4990687370572812  0.7534475647976515
  0.0359949174131915  0.0359949174131915 -0.0359949174131915
  0.5359949174131915  0.5359949174131915  0.4640050825868086
  0.8452223973847285  0.8452223973847285  0.1547776026152716
  0.3452223973847284  0.3452223973847284  0.6547776026152715
 
  0.00000000E+00  0.00000000E+00  0.00000000E+00
  0.00000000E+00  0.00000000E+00  0.00000000E+00
  0.00000000E+00  0.00000000E+00  0.00000000E+00
  0.00000000E+00  0.00000000E+00  0.00000000E+00
  0.00000000E+00  0.00000000E+00  0.00000000E+00
  0.00000000E+00  0.00000000E+00  0.00000000E+00
  0.00000000E+00  0.00000000E+00  0.00000000E+00
  0.00000000E+00  0.00000000E+00  0.00000000E+00
  0.00000000E+00  0.00000000E+00  0.00000000E+00
  0.00000000E+00  0.00000000E+00  0.00000000E+00
  0.00000000E+00  0.00000000E+00  0.00000000E+00
  0.00000000E+00  0.00000000E+00  0.00000000E+00
  0.00000000E+00  0.00000000E+00  0.00000000E+00
  0.00000000E+00  0.00000000E+00  0.00000000E+00
  0.00000000E+00  0.00000000E+00  0.00000000E+00
  0.00000000E+00  0.00000000E+00  0.00000000E+00
  0.00000000E+00  0.00000000E+00  0.00000000E+00
  0.00000000E+00  0.00000000E+00  0.00000000E+00
  0.00000000E+00  0.00000000E+00  0.00000000E+00
  0.00000000E+00  0.00000000E+00  0.00000000E+00
  0.00000000E+00  0.00000000E+00  0.00000000E+00
  0.00000000E+00  0.00000000E+00  0.00000000E+00
  0.00000000E+00  0.00000000E+00  0.00000000E+00
  0.00000000E+00  0.00000000E+00  0.00000000E+00
  0.00000000E+00  0.00000000E+00  0.00000000E+00
  0.00000000E+00  0.00000000E+00  0.00000000E+00
  0.00000000E+00  0.00000000E+00  0.00000000E+00
  0.00000000E+00  0.00000000E+00  0.00000000E+00
  0.00000000E+00  0.00000000E+00  0.00000000E+00
  0.00000000E+00  0.00000000E+00  0.00000000E+00
  0.00000000E+00  0.00000000E+00  0.00000000E+00
  0.00000000E+00  0.00000000E+00  0.00000000E+00
  0.00000000E+00  0.00000000E+00  0.00000000E+00
  0.00000000E+00  0.00000000E+00  0.00000000E+00
  0.00000000E+00  0.00000000E+00  0.00000000E+00
  0.00000000E+00  0.00000000E+00  0.00000000E+00
  0.00000000E+00  0.00000000E+00  0.00000000E+00
  0.00000000E+00  0.00000000E+00  0.00000000E+00
  0.00000000E+00  0.00000000E+00  0.00000000E+00
  0.00000000E+00  0.00000000E+00  0.00000000E+00
  0.00000000E+00  0.00000000E+00  0.00000000E+00
  0.00000000E+00  0.00000000E+00  0.00000000E+00
  0.00000000E+00  0.00000000E+00  0.00000000E+00
  0.00000000E+00  0.00000000E+00  0.00000000E+00
  0.00000000E+00  0.00000000E+00  0.00000000E+00
  0.00000000E+00  0.00000000E+00  0.00000000E+00
