Sodilite                                
   1.00000000000000     
     9.2817716990619736   -0.0000000000000000    0.0000000000000000
     0.0000000000000000    9.2817716990619736    0.0000000000000000
     0.0000000000000000   -0.0000000000000000    9.2817716990619736
   O    Al   Si   Cl   K 
    24     6     6     2     8
Direct
  0.1384192370797666  0.4583002136490129  0.1466355571995156
  0.8615807629202334  0.5416997863509871  0.1466355571995156
  0.8615807629202334  0.4583002136490129  0.8533644428004844
  0.1384192370797666  0.5416997863509871  0.8533644428004844
  0.1466355571995156  0.1384192370797666  0.4583002136490129
  0.1466355571995156  0.8615807629202334  0.5416997863509871
  0.8533644428004844  0.8615807629202334  0.4583002136490129
  0.8533644428004844  0.1384192370797666  0.5416997863509871
  0.4583002136490129  0.1466355571995156  0.1384192370797666
  0.5416997863509871  0.1466355571995156  0.8615807629202334
  0.4583002136490129  0.8533644428004844  0.8615807629202334
  0.5416997863509871  0.8533644428004844  0.1384192370797666
  0.9583002136490129  0.6384192370797666  0.6466355571995156
  0.0416997863509871  0.3615807629202333  0.6466355571995156
  0.9583002136490129  0.3615807629202333  0.3533644428004845
  0.0416997863509871  0.6384192370797666  0.3533644428004845
  0.6384192370797666  0.6466355571995156  0.9583002136490129
  0.3615807629202333  0.6466355571995156  0.0416997863509871
  0.3615807629202333  0.3533644428004845  0.9583002136490129
  0.6384192370797666  0.3533644428004845  0.0416997863509871
  0.6466355571995156  0.9583002136490129  0.6384192370797666
  0.6466355571995156  0.0416997863509871  0.3615807629202333
  0.3533644428004845  0.9583002136490129  0.3615807629202333
  0.3533644428004845  0.0416997863509871  0.6384192370797666
  0.2500000000000000  0.5000000000000000  0.0000000000000000
  0.7500000000000000  0.5000000000000000  0.0000000000000000
 -0.0000000000000000  0.2500000000000000  0.5000000000000000
 -0.0000000000000000  0.7500000000000000  0.5000000000000000
  0.5000000000000000 -0.0000000000000000  0.2500000000000000
  0.5000000000000000 -0.0000000000000000  0.7500000000000000
  0.2500000000000000 -0.0000000000000000  0.5000000000000000
  0.7500000000000000 -0.0000000000000000  0.5000000000000000
  0.5000000000000000  0.2500000000000000  0.0000000000000000
  0.5000000000000000  0.7500000000000000  0.0000000000000000
 -0.0000000000000000  0.5000000000000000  0.2500000000000000
 -0.0000000000000000  0.5000000000000000  0.7500000000000000
 -0.0000000000000000 -0.0000000000000000  0.0000000000000000
  0.5000000000000000  0.5000000000000000  0.5000000000000000
  0.1726121826408244  0.1726121826408244  0.1726121826408244
  0.8273878173591757  0.8273878173591757  0.1726121826408244
  0.8273878173591757  0.1726121826408244  0.8273878173591757
  0.1726121826408244  0.8273878173591757  0.8273878173591757
  0.6726121826408243  0.6726121826408243  0.6726121826408243
  0.3273878173591757  0.3273878173591757  0.6726121826408243
  0.6726121826408243  0.3273878173591757  0.3273878173591757
  0.3273878173591757  0.6726121826408243  0.3273878173591757
 
  0.00000000E+00  0.00000000E+00  0.00000000E+00
  0.00000000E+00  0.00000000E+00  0.00000000E+00
  0.00000000E+00  0.00000000E+00  0.00000000E+00
  0.00000000E+00  0.00000000E+00  0.00000000E+00
  0.00000000E+00  0.00000000E+00  0.00000000E+00
  0.00000000E+00  0.00000000E+00  0.00000000E+00
  0.00000000E+00  0.00000000E+00  0.00000000E+00
  0.00000000E+00  0.00000000E+00  0.00000000E+00
  0.00000000E+00  0.00000000E+00  0.00000000E+00
  0.00000000E+00  0.00000000E+00  0.00000000E+00
  0.00000000E+00  0.00000000E+00  0.00000000E+00
  0.00000000E+00  0.00000000E+00  0.00000000E+00
  0.00000000E+00  0.00000000E+00  0.00000000E+00
  0.00000000E+00  0.00000000E+00  0.00000000E+00
  0.00000000E+00  0.00000000E+00  0.00000000E+00
  0.00000000E+00  0.00000000E+00  0.00000000E+00
  0.00000000E+00  0.00000000E+00  0.00000000E+00
  0.00000000E+00  0.00000000E+00  0.00000000E+00
  0.00000000E+00  0.00000000E+00  0.00000000E+00
  0.00000000E+00  0.00000000E+00  0.00000000E+00
  0.00000000E+00  0.00000000E+00  0.00000000E+00
  0.00000000E+00  0.00000000E+00  0.00000000E+00
  0.00000000E+00  0.00000000E+00  0.00000000E+00
  0.00000000E+00  0.00000000E+00  0.00000000E+00
  0.00000000E+00  0.00000000E+00  0.00000000E+00
  0.00000000E+00  0.00000000E+00  0.00000000E+00
  0.00000000E+00  0.00000000E+00  0.00000000E+00
  0.00000000E+00  0.00000000E+00  0.00000000E+00
  0.00000000E+00  0.00000000E+00  0.00000000E+00
  0.00000000E+00  0.00000000E+00  0.00000000E+00
  0.00000000E+00  0.00000000E+00  0.00000000E+00
  0.00000000E+00  0.00000000E+00  0.00000000E+00
  0.00000000E+00  0.00000000E+00  0.00000000E+00
  0.00000000E+00  0.00000000E+00  0.00000000E+00
  0.00000000E+00  0.00000000E+00  0.00000000E+00
  0.00000000E+00  0.00000000E+00  0.00000000E+00
  0.00000000E+00  0.00000000E+00  0.00000000E+00
  0.00000000E+00  0.00000000E+00  0.00000000E+00
  0.00000000E+00  0.00000000E+00  0.00000000E+00
  0.00000000E+00  0.00000000E+00  0.00000000E+00
  0.00000000E+00  0.00000000E+00  0.00000000E+00
  0.00000000E+00  0.00000000E+00  0.00000000E+00
  0.00000000E+00  0.00000000E+00  0.00000000E+00
  0.00000000E+00  0.00000000E+00  0.00000000E+00
  0.00000000E+00  0.00000000E+00  0.00000000E+00
  0.00000000E+00  0.00000000E+00  0.00000000E+00
