Sodilite                                
   1.00000000000000     
     9.1729242780186855    0.0031270834913616   -0.0031270823791612
     0.0031270823791612    9.1729242780186855   -0.0031270834913616
    -0.0031270834913616   -0.0031270823791612    9.1729242780186855
   O    Na   Al   Si   Cl   K 
    24     4     6     6     2     4
Direct
  0.1497739007764598  0.4517071353882193  0.1568432780727160
  0.8625794024955009  0.5344637483266522  0.1465546939935285
  0.8524749273713451  0.4514584692825918  0.8402783160606281
  0.1350383187668968  0.5501264350852021  0.8545824980184188
  0.1454175019815812  0.1350383187668969  0.4498735649147980
  0.1597216839393714  0.8524749273713451  0.5485415307174083
  0.8534453060064707  0.8625794024955009  0.4655362516733481
  0.8431567219272849  0.1497739007764598  0.5482928646117806
  0.4514584692825918  0.1597216839393714  0.1475250726286547
  0.5501264350852021  0.1454175019815812  0.8649616812331035
  0.4517071353882193  0.8431567219272849  0.8502260992235404
  0.5344637483266522  0.8534453060064707  0.1374205975044988
  0.9610462557161784  0.6339186207571836  0.6442660933498325
  0.0515817782590162  0.3503402544939654  0.6595407657920105
  0.9625848752871725  0.3635564031871174  0.3558921907623489
  0.0399514341859630  0.6501736516546242  0.3396704938286713
  0.6501736516546242  0.6603295061713288  0.9600485658140367
  0.3635564031871174  0.6441078092376510  0.0374151247128273
  0.3503402544939654  0.3404592342079896  0.9484182217409842
  0.6339186207571836  0.3557339066501677  0.0389537442838217
  0.6441078092376510  0.9625848752871725  0.6364435968128829
  0.6603295061713288  0.0399514341859630  0.3498263483453755
  0.3557339066501677  0.9610462557161785  0.3660813792428162
  0.3404592342079896  0.0515817782590162  0.6496597455060343
  0.1924072374745925  0.1931345553514618  0.1899057285796775
  0.8100942714203231  0.1924072374745925  0.8068654446485383
  0.1931345553514618  0.8100942714203231  0.8075927625254072
  0.2913268473303130  0.2913268473303130  0.7086731526696872
  0.2495206458630742  0.4964007864839389 -0.0016351918743403
  0.7503210958602583  0.5003619266172784 -0.0041917714617530
  0.0016351918743403  0.2495206458630742  0.5035992135160611
  0.0041917714617530  0.7503210958602583  0.4996380733827218
  0.5003619266172784  0.0041917714617530  0.2496789041397419
  0.4964007864839389  0.0016351918743403  0.7504793541369260
  0.2502290357609480  0.0007585326216158  0.5035589188869481
  0.7505182897080839  0.0039068936206664  0.5001366222007325
  0.4964410811130516  0.2502290357609480 -0.0007585326216158
  0.4998633777992674  0.7505182897080839 -0.0039068936206664
  0.0039068936206664  0.4998633777992674  0.2494817102919154
  0.0007585326216158  0.4964410811130516  0.7497709642390524
  0.0340734059409930  0.0340734059409930 -0.0340734059409930
  0.4578285937066952  0.4578285937066952  0.5421714062933048
  0.8403861493939844  0.8403861493939844  0.1596138506060152
  0.6697487270195089  0.6705714368726134  0.6668671344506970
  0.6705714368726134  0.3331328655493032  0.3302512729804911
  0.3331328655493032  0.6697487270195089  0.3294285631273859
 
  0.00000000E+00  0.00000000E+00  0.00000000E+00
  0.00000000E+00  0.00000000E+00  0.00000000E+00
  0.00000000E+00  0.00000000E+00  0.00000000E+00
  0.00000000E+00  0.00000000E+00  0.00000000E+00
  0.00000000E+00  0.00000000E+00  0.00000000E+00
  0.00000000E+00  0.00000000E+00  0.00000000E+00
  0.00000000E+00  0.00000000E+00  0.00000000E+00
  0.00000000E+00  0.00000000E+00  0.00000000E+00
  0.00000000E+00  0.00000000E+00  0.00000000E+00
  0.00000000E+00  0.00000000E+00  0.00000000E+00
  0.00000000E+00  0.00000000E+00  0.00000000E+00
  0.00000000E+00  0.00000000E+00  0.00000000E+00
  0.00000000E+00  0.00000000E+00  0.00000000E+00
  0.00000000E+00  0.00000000E+00  0.00000000E+00
  0.00000000E+00  0.00000000E+00  0.00000000E+00
  0.00000000E+00  0.00000000E+00  0.00000000E+00
  0.00000000E+00  0.00000000E+00  0.00000000E+00
  0.00000000E+00  0.00000000E+00  0.00000000E+00
  0.00000000E+00  0.00000000E+00  0.00000000E+00
  0.00000000E+00  0.00000000E+00  0.00000000E+00
  0.00000000E+00  0.00000000E+00  0.00000000E+00
  0.00000000E+00  0.00000000E+00  0.00000000E+00
  0.00000000E+00  0.00000000E+00  0.00000000E+00
  0.00000000E+00  0.00000000E+00  0.00000000E+00
  0.00000000E+00  0.00000000E+00  0.00000000E+00
  0.00000000E+00  0.00000000E+00  0.00000000E+00
  0.00000000E+00  0.00000000E+00  0.00000000E+00
  0.00000000E+00  0.00000000E+00  0.00000000E+00
  0.00000000E+00  0.00000000E+00  0.00000000E+00
  0.00000000E+00  0.00000000E+00  0.00000000E+00
  0.00000000E+00  0.00000000E+00  0.00000000E+00
  0.00000000E+00  0.00000000E+00  0.00000000E+00
  0.00000000E+00  0.00000000E+00  0.00000000E+00
  0.00000000E+00  0.00000000E+00  0.00000000E+00
  0.00000000E+00  0.00000000E+00  0.00000000E+00
  0.00000000E+00  0.00000000E+00  0.00000000E+00
  0.00000000E+00  0.00000000E+00  0.00000000E+00
  0.00000000E+00  0.00000000E+00  0.00000000E+00
  0.00000000E+00  0.00000000E+00  0.00000000E+00
  0.00000000E+00  0.00000000E+00  0.00000000E+00
  0.00000000E+00  0.00000000E+00  0.00000000E+00
  0.00000000E+00  0.00000000E+00  0.00000000E+00
  0.00000000E+00  0.00000000E+00  0.00000000E+00
  0.00000000E+00  0.00000000E+00  0.00000000E+00
  0.00000000E+00  0.00000000E+00  0.00000000E+00
  0.00000000E+00  0.00000000E+00  0.00000000E+00
