Sodilite                                
   1.00000000000000     
     9.2660477972705433    0.0002155079909646    0.0002155079909646
     0.0002151095079214    9.2771357399749537    0.0156500920152389
     0.0002151095079214    0.0156500920152389    9.2771357399749537
   O    Na   Al   Si   Cl   K 
    24     2     6     6     2     6
Direct
  0.1366335938539488  0.4679849966835797  0.1436553785650539
  0.8511679375784152  0.5415760489575305  0.1624298291815374
  0.8650787579394885  0.4732054456919673  0.8537449034323077
  0.1540678800251075  0.5308620521815856  0.8406345318860784
  0.1642174386047768  0.1500810490370926  0.4680202744801323
  0.1470218964631972  0.8644052388241441  0.5325300542228032
  0.8422212849002091  0.8478632264217817  0.4596635327145560
  0.8568160033844794  0.1364742527923364  0.5260949189421154
  0.4719100740366827  0.1481131364188671  0.1402567233906532
  0.5300378862893452  0.1571521013791384  0.8515791614954132
  0.4715394240554365  0.8500471216244365  0.8621307113374931
  0.5451331684033845  0.8426819384083805  0.1483015877346274
  0.9719100740366828  0.6402567233906529  0.6481131364188661
  0.0300378862893452  0.3515791614954134  0.6571521013791386
  0.9715394240554368  0.3621307113374937  0.3500471216244370
  0.0451331684033847  0.6483015877346272  0.3426819384083803
  0.6366335938539489  0.6436553785650541  0.9679849966835797
  0.3511679375784154  0.6624298291815369  0.0415760489575302
  0.3650787579394885  0.3537449034323082  0.9732054456919670
  0.6540678800251074  0.3406345318860783  0.0308620521815851
  0.6642174386047768  0.9680202744801321  0.6500810490370926
  0.6470218964631973  0.0325300542228034  0.3644052388241444
  0.3422212849002086  0.9596635327145563  0.3478632264217820
  0.3568160033844799  0.0260949189421150  0.6364742527923362
  0.7940357157616396  0.7938905928019155  0.2072130987618323
  0.2940357157616398  0.7072130987618324  0.2938905928019155
  0.2536421093906229  0.5040896804936758  0.0003634113573330
  0.7536421093906227  0.5003634113573330  0.0040896804936754
  0.0058924071789807  0.2500845219387854  0.4991849597245321
  0.0020252053877691  0.7499801836433698  0.4961814472861243
  0.5020252053877686 -0.0038185527138758  0.2499801836433701
  0.5058924071789807 -0.0008150402754680  0.7500845219387853
  0.2533654026490679 -0.0003540868445879  0.4961549404794836
  0.7533654026490677 -0.0038450595205164  0.4996459131554120
  0.5054979322029742  0.2499412227436077 -0.0002979788070352
  0.5017104932994723  0.7498520382455720  0.0047667418044210
  0.0017104932994726  0.5047667418044209  0.2498520382455728
  0.0054979322029739  0.4997020211929643  0.7499412227436076
 -0.0327795841158635 -0.0387377639891322  0.0388413464788796
  0.4672204158841364  0.5388413464788795  0.4612622360108681
  0.1758329297200974  0.1761665364412018  0.1738349437027824
  0.8292870002421904  0.1723092465434143  0.8273037869379163
  0.1756450427485773  0.8255262745872179  0.8242166398650789
  0.6758329297200977  0.6738349437027823  0.6761665364412019
  0.3292870002421907  0.3273037869379158  0.6723092465434145
  0.6756450427485777  0.3242166398650784  0.3255262745872186
 
  0.00000000E+00  0.00000000E+00  0.00000000E+00
  0.00000000E+00  0.00000000E+00  0.00000000E+00
  0.00000000E+00  0.00000000E+00  0.00000000E+00
  0.00000000E+00  0.00000000E+00  0.00000000E+00
  0.00000000E+00  0.00000000E+00  0.00000000E+00
  0.00000000E+00  0.00000000E+00  0.00000000E+00
  0.00000000E+00  0.00000000E+00  0.00000000E+00
  0.00000000E+00  0.00000000E+00  0.00000000E+00
  0.00000000E+00  0.00000000E+00  0.00000000E+00
  0.00000000E+00  0.00000000E+00  0.00000000E+00
  0.00000000E+00  0.00000000E+00  0.00000000E+00
  0.00000000E+00  0.00000000E+00  0.00000000E+00
  0.00000000E+00  0.00000000E+00  0.00000000E+00
  0.00000000E+00  0.00000000E+00  0.00000000E+00
  0.00000000E+00  0.00000000E+00  0.00000000E+00
  0.00000000E+00  0.00000000E+00  0.00000000E+00
  0.00000000E+00  0.00000000E+00  0.00000000E+00
  0.00000000E+00  0.00000000E+00  0.00000000E+00
  0.00000000E+00  0.00000000E+00  0.00000000E+00
  0.00000000E+00  0.00000000E+00  0.00000000E+00
  0.00000000E+00  0.00000000E+00  0.00000000E+00
  0.00000000E+00  0.00000000E+00  0.00000000E+00
  0.00000000E+00  0.00000000E+00  0.00000000E+00
  0.00000000E+00  0.00000000E+00  0.00000000E+00
  0.00000000E+00  0.00000000E+00  0.00000000E+00
  0.00000000E+00  0.00000000E+00  0.00000000E+00
  0.00000000E+00  0.00000000E+00  0.00000000E+00
  0.00000000E+00  0.00000000E+00  0.00000000E+00
  0.00000000E+00  0.00000000E+00  0.00000000E+00
  0.00000000E+00  0.00000000E+00  0.00000000E+00
  0.00000000E+00  0.00000000E+00  0.00000000E+00
  0.00000000E+00  0.00000000E+00  0.00000000E+00
  0.00000000E+00  0.00000000E+00  0.00000000E+00
  0.00000000E+00  0.00000000E+00  0.00000000E+00
  0.00000000E+00  0.00000000E+00  0.00000000E+00
  0.00000000E+00  0.00000000E+00  0.00000000E+00
  0.00000000E+00  0.00000000E+00  0.00000000E+00
  0.00000000E+00  0.00000000E+00  0.00000000E+00
  0.00000000E+00  0.00000000E+00  0.00000000E+00
  0.00000000E+00  0.00000000E+00  0.00000000E+00
  0.00000000E+00  0.00000000E+00  0.00000000E+00
  0.00000000E+00  0.00000000E+00  0.00000000E+00
  0.00000000E+00  0.00000000E+00  0.00000000E+00
  0.00000000E+00  0.00000000E+00  0.00000000E+00
  0.00000000E+00  0.00000000E+00  0.00000000E+00
  0.00000000E+00  0.00000000E+00  0.00000000E+00
