Sodilite                                
   1.00000000000000     
     9.1711398635443189   -0.0021896368402119    0.0021896383128478
    -0.0021896383128478    9.1711398635443189   -0.0021896368402118
     0.0021896368402118   -0.0021896383128478    9.1711398635443189
   O    Na   Al   Si   Cl   K 
    24     4     6     6     2     4
Direct
  0.1351542689226573  0.4497605373105565  0.1455519578144433
  0.8525625932727483  0.5486072577235177  0.1595989163219453
  0.8624346880454793  0.4653668578642895  0.8533017375917283
  0.1496473737850745  0.5482936945472004  0.8432567908277697
  0.1595989163219453  0.1474374067272518  0.4513927422764831
  0.1455519578144433  0.8648457310773429  0.5502394626894430
  0.8432567908277697  0.8503526262149255  0.4517063054527993
  0.8533017375917283  0.1375653119545210  0.5346331421357099
  0.4517063054527993  0.1567432091722307  0.1496473737850745
  0.5346331421357099  0.1466982624082720  0.8624346880454793
  0.4513927422764831  0.8404010836780548  0.8525625932727483
  0.5502394626894430  0.8544480421855569  0.1351542689226573
  0.9625082341247658  0.6364946154447122  0.6441529013235539
  0.0400309531787347  0.3498944444800319  0.6602835447105567
  0.9608815340183486  0.3661121663898723  0.3557408942870381
  0.0515388232514932  0.6496606190324141  0.3404795386161436
  0.6338878336101278  0.6442591057129615  0.9608815340183486
  0.3503393809675860  0.6595204613838567  0.0515388232514932
  0.3635053845552881  0.3558470986764461  0.9625082341247658
  0.6501055555199690  0.3397164552894436  0.0400309531787347
  0.6602835447105567  0.9599690468212657  0.6501055555199690
  0.6441529013235539  0.0374917658752338  0.3635053845552881
  0.3404795386161436  0.9484611767485064  0.3503393809675860
  0.3557408942870381  0.0391184659816512  0.6338878336101278
  0.1932190120169129  0.1896494530306936  0.1924599484799925
  0.8103505469693058  0.8075400515200075  0.1932190120169129
  0.1924599484799925  0.8067809879830875  0.8103505469693058
  0.2911291448658787  0.7088708551341212  0.2911291448658787
  0.2495003903087802  0.5035375261679919  0.0017202676316167
  0.7503110598572343  0.4996386181465505  0.0041232010074184
  0.0041232010074184  0.2496889401427663  0.5003613818534494
  0.0017202676316167  0.7504996096912196  0.4964624738320082
  0.4964624738320082 -0.0017202676316167  0.2495003903087802
  0.5003613818534494 -0.0041232010074184  0.7503110598572343
  0.2502289978930181 -0.0007746006947659  0.4964931170109014
  0.7505182987561732 -0.0038493685490289  0.4998716497551005
  0.4998716497551005  0.2494817012438262  0.0038493685490289
  0.4964931170109014  0.7497710021069822  0.0007746006947659
  0.0007746006947659  0.5035068829890987  0.2502289978930181
  0.0038493685490289  0.5001283502448993  0.7505182987561733
  0.0343139958215239 -0.0343139958215239  0.0343139958215239
  0.4575614567082603  0.5424385432917403  0.4575614567082603
  0.8406166829440348  0.1593833170559660  0.8406166829440348
  0.6704299785457426  0.6667840222730498  0.6695538914720165
  0.3332159777269509  0.3304461085279831  0.6704299785457426
  0.6695538914720165  0.3295700214542574  0.3332159777269509
 
  0.00000000E+00  0.00000000E+00  0.00000000E+00
  0.00000000E+00  0.00000000E+00  0.00000000E+00
  0.00000000E+00  0.00000000E+00  0.00000000E+00
  0.00000000E+00  0.00000000E+00  0.00000000E+00
  0.00000000E+00  0.00000000E+00  0.00000000E+00
  0.00000000E+00  0.00000000E+00  0.00000000E+00
  0.00000000E+00  0.00000000E+00  0.00000000E+00
  0.00000000E+00  0.00000000E+00  0.00000000E+00
  0.00000000E+00  0.00000000E+00  0.00000000E+00
  0.00000000E+00  0.00000000E+00  0.00000000E+00
  0.00000000E+00  0.00000000E+00  0.00000000E+00
  0.00000000E+00  0.00000000E+00  0.00000000E+00
  0.00000000E+00  0.00000000E+00  0.00000000E+00
  0.00000000E+00  0.00000000E+00  0.00000000E+00
  0.00000000E+00  0.00000000E+00  0.00000000E+00
  0.00000000E+00  0.00000000E+00  0.00000000E+00
  0.00000000E+00  0.00000000E+00  0.00000000E+00
  0.00000000E+00  0.00000000E+00  0.00000000E+00
  0.00000000E+00  0.00000000E+00  0.00000000E+00
  0.00000000E+00  0.00000000E+00  0.00000000E+00
  0.00000000E+00  0.00000000E+00  0.00000000E+00
  0.00000000E+00  0.00000000E+00  0.00000000E+00
  0.00000000E+00  0.00000000E+00  0.00000000E+00
  0.00000000E+00  0.00000000E+00  0.00000000E+00
  0.00000000E+00  0.00000000E+00  0.00000000E+00
  0.00000000E+00  0.00000000E+00  0.00000000E+00
  0.00000000E+00  0.00000000E+00  0.00000000E+00
  0.00000000E+00  0.00000000E+00  0.00000000E+00
  0.00000000E+00  0.00000000E+00  0.00000000E+00
  0.00000000E+00  0.00000000E+00  0.00000000E+00
  0.00000000E+00  0.00000000E+00  0.00000000E+00
  0.00000000E+00  0.00000000E+00  0.00000000E+00
  0.00000000E+00  0.00000000E+00  0.00000000E+00
  0.00000000E+00  0.00000000E+00  0.00000000E+00
  0.00000000E+00  0.00000000E+00  0.00000000E+00
  0.00000000E+00  0.00000000E+00  0.00000000E+00
  0.00000000E+00  0.00000000E+00  0.00000000E+00
  0.00000000E+00  0.00000000E+00  0.00000000E+00
  0.00000000E+00  0.00000000E+00  0.00000000E+00
  0.00000000E+00  0.00000000E+00  0.00000000E+00
  0.00000000E+00  0.00000000E+00  0.00000000E+00
  0.00000000E+00  0.00000000E+00  0.00000000E+00
  0.00000000E+00  0.00000000E+00  0.00000000E+00
  0.00000000E+00  0.00000000E+00  0.00000000E+00
  0.00000000E+00  0.00000000E+00  0.00000000E+00
  0.00000000E+00  0.00000000E+00  0.00000000E+00
