Sodilite                                
   1.00000000000000     
     9.2278760428927633   -0.0129399157205977   -0.0352961183263725
    -0.0129323382092419    9.2275287310572498   -0.0144175692641662
    -0.0353112785800387   -0.0144261803313794    9.2274541350153907
   O    Na   Al   Si   Cl   K 
    24     3     6     6     2     5
Direct
  0.1520088218356778  0.4555922708765003  0.1604538486548444
  0.8645132377915076  0.5307226425189299  0.1419644833473461
  0.8471868811938477  0.4496419388989711  0.8380610879997039
  0.1322055663733944  0.5318441878279719  0.8535904119778107
  0.1504566103000114  0.1397254622115493  0.4592983564160215
  0.1525350039629050  0.8512936097626900  0.5334894646938816
  0.8501464275338378  0.8571683833183246  0.4623283496277132
  0.8425650953768257  0.1421056042181451  0.5451027672029536
  0.4601492941308393  0.1480428332863580  0.1412503633920568
  0.5431955414222603  0.1506945150770398  0.8537217924897430
  0.4616901282797114  0.8468724303827586  0.8583294238788929
  0.5353739300138206  0.8402366079762534  0.1437297202948132
  0.9547142530601296  0.6471184761760638  0.6604115897853035
  0.0351965461785203  0.3620566385784437  0.6423827820471221
  0.9616773782081717  0.3454115648978301  0.3401723596234642
  0.0317415710825330  0.6327018511445880  0.3514939735235160
  0.6507088237742799  0.6557372848713059  0.9560962691636558
  0.3620867178741972  0.6412519109155366  0.0299696449196619
  0.3493764284296105  0.3358517771636050  0.9604877426792565
  0.6341652301185948  0.3510049566138509  0.0365506470054216
  0.6569063288832058  0.9518645817581346  0.6486161524236959
  0.6471659497096472  0.0318697505309444  0.3621701390608276
  0.3413683044119715  0.9624677978651943  0.3495741967243894
  0.3506868253656005  0.0323113879457929  0.6372757541535584
  0.1909810230565451  0.1932779823675791  0.1911983968242943
  0.8011762554996978  0.1971678372401603  0.8026733708117607
  0.7024295729730938  0.7020138861684565  0.7036510519467751
  0.2478418492306128  0.4911893488952464 -0.0005928187435135
  0.7488567607534802  0.4955349475313447 -0.0060217759186235
 -0.0035288060035521  0.2449412093602680  0.4975523033800214
 -0.0028461390675883  0.7444735007830852  0.5014755267246799
  0.4977322202279979 -0.0052023521878724  0.2482460757512898
  0.5014401346974466 -0.0045810647847802  0.7486525508426296
  0.2483200207047525 -0.0042967023799570  0.4957981875657178
  0.7488372896720987 -0.0046772241070545  0.5035578612388134
  0.4971024122998964  0.2453997660423743 -0.0026014049517647
  0.5020061177659690  0.7449048599071229 -0.0031901775843254
  0.0012620297275747  0.4909259653087640  0.2480775402774567
 -0.0073158917122395  0.4965249839844944  0.7486137228321911
 -0.0039056468752984  0.0640918559380414 -0.0037346504029190
  0.5367583525501166  0.5330469994314084  0.5368416287648309
  0.8324699351656978  0.8305198409038813  0.1686167496338623
  0.1680834649573488  0.8313176036537404  0.8310951683685192
  0.3250317199385778  0.3255611858285213  0.6706520546186976
  0.6714347860524900  0.3250298668548368  0.3261318454724655
  0.3280116430741799  0.6692472384435558  0.3267854714614873
 
  0.00000000E+00  0.00000000E+00  0.00000000E+00
  0.00000000E+00  0.00000000E+00  0.00000000E+00
  0.00000000E+00  0.00000000E+00  0.00000000E+00
  0.00000000E+00  0.00000000E+00  0.00000000E+00
  0.00000000E+00  0.00000000E+00  0.00000000E+00
  0.00000000E+00  0.00000000E+00  0.00000000E+00
  0.00000000E+00  0.00000000E+00  0.00000000E+00
  0.00000000E+00  0.00000000E+00  0.00000000E+00
  0.00000000E+00  0.00000000E+00  0.00000000E+00
  0.00000000E+00  0.00000000E+00  0.00000000E+00
  0.00000000E+00  0.00000000E+00  0.00000000E+00
  0.00000000E+00  0.00000000E+00  0.00000000E+00
  0.00000000E+00  0.00000000E+00  0.00000000E+00
  0.00000000E+00  0.00000000E+00  0.00000000E+00
  0.00000000E+00  0.00000000E+00  0.00000000E+00
  0.00000000E+00  0.00000000E+00  0.00000000E+00
  0.00000000E+00  0.00000000E+00  0.00000000E+00
  0.00000000E+00  0.00000000E+00  0.00000000E+00
  0.00000000E+00  0.00000000E+00  0.00000000E+00
  0.00000000E+00  0.00000000E+00  0.00000000E+00
  0.00000000E+00  0.00000000E+00  0.00000000E+00
  0.00000000E+00  0.00000000E+00  0.00000000E+00
  0.00000000E+00  0.00000000E+00  0.00000000E+00
  0.00000000E+00  0.00000000E+00  0.00000000E+00
  0.00000000E+00  0.00000000E+00  0.00000000E+00
  0.00000000E+00  0.00000000E+00  0.00000000E+00
  0.00000000E+00  0.00000000E+00  0.00000000E+00
  0.00000000E+00  0.00000000E+00  0.00000000E+00
  0.00000000E+00  0.00000000E+00  0.00000000E+00
  0.00000000E+00  0.00000000E+00  0.00000000E+00
  0.00000000E+00  0.00000000E+00  0.00000000E+00
  0.00000000E+00  0.00000000E+00  0.00000000E+00
  0.00000000E+00  0.00000000E+00  0.00000000E+00
  0.00000000E+00  0.00000000E+00  0.00000000E+00
  0.00000000E+00  0.00000000E+00  0.00000000E+00
  0.00000000E+00  0.00000000E+00  0.00000000E+00
  0.00000000E+00  0.00000000E+00  0.00000000E+00
  0.00000000E+00  0.00000000E+00  0.00000000E+00
  0.00000000E+00  0.00000000E+00  0.00000000E+00
  0.00000000E+00  0.00000000E+00  0.00000000E+00
  0.00000000E+00  0.00000000E+00  0.00000000E+00
  0.00000000E+00  0.00000000E+00  0.00000000E+00
  0.00000000E+00  0.00000000E+00  0.00000000E+00
  0.00000000E+00  0.00000000E+00  0.00000000E+00
  0.00000000E+00  0.00000000E+00  0.00000000E+00
  0.00000000E+00  0.00000000E+00  0.00000000E+00
