Sodilite                                
   1.00000000000000     
     9.2882532316348065   -0.0203256620591574   -0.0203256620591574
    -0.0203256620591574    9.2882532316348065   -0.0203256620591574
    -0.0203256620591574   -0.0203256620591574    9.2882532316348065
   O    Na   Al   Si   Cl   K 
    24     2     6     6     2     6
Direct
  0.1471468435593061  0.4621469859981969  0.1557190262113697
  0.8583228988807912  0.5266454263625860  0.1459513036399690
  0.8499177327366819  0.4667909427205779  0.8411403128327820
  0.1370598551856445  0.5283693888708417  0.8472642286958739
  0.1557190262113697  0.1471468435593061  0.4621469859981969
  0.1459513036399690  0.8583228988807912  0.5266454263625860
  0.8411403128327820  0.8499177327366819  0.4667909427205779
  0.8472642286958739  0.1370598551856445  0.5283693888708417
  0.4621469859981969  0.1557190262113697  0.1471468435593061
  0.5266454263625860  0.1459513036399690  0.8583228988807912
  0.4667909427205779  0.8411403128327820  0.8499177327366819
  0.5283693888708417  0.8472642286958739  0.1370598551856445
  0.9621469859981966  0.6471468435593060  0.6557190262113697
  0.0266454263625859  0.3583228988807917  0.6459513036399694
  0.9667909427205780  0.3499177327366825  0.3411403128327820
  0.0283693888708419  0.6370598551856450  0.3472642286958736
  0.6471468435593060  0.6557190262113697  0.9621469859981966
  0.3583228988807917  0.6459513036399694  0.0266454263625859
  0.3499177327366825  0.3411403128327820  0.9667909427205780
  0.6370598551856450  0.3472642286958736  0.0283693888708419
  0.6557190262113697  0.9621469859981966  0.6471468435593060
  0.6459513036399694  0.0266454263625859  0.3583228988807917
  0.3411403128327820  0.9667909427205780  0.3499177327366825
  0.3472642286958736  0.0283693888708419  0.6370598551856450
  0.2004781399877504  0.2004781399877504  0.2004781399877504
  0.7004781399877499  0.7004781399877499  0.7004781399877500
  0.2465972226989819  0.4950703328340926 -0.0021153433769490
  0.7465972226989823  0.4978846566230510 -0.0049296671659074
 -0.0021153433769490  0.2465972226989819  0.4950703328340926
 -0.0049296671659074  0.7465972226989823  0.4978846566230510
  0.4950703328340926 -0.0021153433769490  0.2465972226989819
  0.4978846566230510 -0.0049296671659074  0.7465972226989823
  0.2468859919837056 -0.0007905256252240  0.4941843136633798
  0.7468859919837056 -0.0058156863366202  0.4992094743747759
  0.4941843136633798  0.2468859919837056 -0.0007905256252240
  0.4992094743747759  0.7468859919837056 -0.0058156863366202
 -0.0007905256252240  0.4941843136633798  0.2468859919837056
 -0.0058156863366202  0.4992094743747759  0.7468859919837056
  0.0316213187707095  0.0316213187707095  0.0316213187707095
  0.5316213187707091  0.5316213187707091  0.5316213187707091
  0.8238835924908007  0.8225936437588560  0.1751163671192746
  0.8225936437588560  0.1751163671192746  0.8238835924908007
  0.1751163671192746  0.8238835924908007  0.8225936437588560
  0.3225936437588563  0.3238835924908010  0.6751163671192749
  0.6751163671192749  0.3225936437588563  0.3238835924908010
  0.3238835924908010  0.6751163671192749  0.3225936437588563
 
  0.00000000E+00  0.00000000E+00  0.00000000E+00
  0.00000000E+00  0.00000000E+00  0.00000000E+00
  0.00000000E+00  0.00000000E+00  0.00000000E+00
  0.00000000E+00  0.00000000E+00  0.00000000E+00
  0.00000000E+00  0.00000000E+00  0.00000000E+00
  0.00000000E+00  0.00000000E+00  0.00000000E+00
  0.00000000E+00  0.00000000E+00  0.00000000E+00
  0.00000000E+00  0.00000000E+00  0.00000000E+00
  0.00000000E+00  0.00000000E+00  0.00000000E+00
  0.00000000E+00  0.00000000E+00  0.00000000E+00
  0.00000000E+00  0.00000000E+00  0.00000000E+00
  0.00000000E+00  0.00000000E+00  0.00000000E+00
  0.00000000E+00  0.00000000E+00  0.00000000E+00
  0.00000000E+00  0.00000000E+00  0.00000000E+00
  0.00000000E+00  0.00000000E+00  0.00000000E+00
  0.00000000E+00  0.00000000E+00  0.00000000E+00
  0.00000000E+00  0.00000000E+00  0.00000000E+00
  0.00000000E+00  0.00000000E+00  0.00000000E+00
  0.00000000E+00  0.00000000E+00  0.00000000E+00
  0.00000000E+00  0.00000000E+00  0.00000000E+00
  0.00000000E+00  0.00000000E+00  0.00000000E+00
  0.00000000E+00  0.00000000E+00  0.00000000E+00
  0.00000000E+00  0.00000000E+00  0.00000000E+00
  0.00000000E+00  0.00000000E+00  0.00000000E+00
  0.00000000E+00  0.00000000E+00  0.00000000E+00
  0.00000000E+00  0.00000000E+00  0.00000000E+00
  0.00000000E+00  0.00000000E+00  0.00000000E+00
  0.00000000E+00  0.00000000E+00  0.00000000E+00
  0.00000000E+00  0.00000000E+00  0.00000000E+00
  0.00000000E+00  0.00000000E+00  0.00000000E+00
  0.00000000E+00  0.00000000E+00  0.00000000E+00
  0.00000000E+00  0.00000000E+00  0.00000000E+00
  0.00000000E+00  0.00000000E+00  0.00000000E+00
  0.00000000E+00  0.00000000E+00  0.00000000E+00
  0.00000000E+00  0.00000000E+00  0.00000000E+00
  0.00000000E+00  0.00000000E+00  0.00000000E+00
  0.00000000E+00  0.00000000E+00  0.00000000E+00
  0.00000000E+00  0.00000000E+00  0.00000000E+00
  0.00000000E+00  0.00000000E+00  0.00000000E+00
  0.00000000E+00  0.00000000E+00  0.00000000E+00
  0.00000000E+00  0.00000000E+00  0.00000000E+00
  0.00000000E+00  0.00000000E+00  0.00000000E+00
  0.00000000E+00  0.00000000E+00  0.00000000E+00
  0.00000000E+00  0.00000000E+00  0.00000000E+00
  0.00000000E+00  0.00000000E+00  0.00000000E+00
  0.00000000E+00  0.00000000E+00  0.00000000E+00
