Sodilite                                
   1.00000000000000     
     9.3096297819559304    0.0000000000000000    0.0000000000000000
     0.0000000000000000    9.3015143707166512    0.0214112380241855
     0.0000000000000000    0.0214023263066585    9.3007882097712962
   O    Na   Al   Si   Cl   K 
    24     2     6     6     2     6
Direct
  0.1453888380004263  0.4734549336293994  0.1526063404161034
  0.8574629037381966  0.5361076800471487  0.1538848439154859
  0.8574629037381966  0.4638923199528517  0.8461151560845144
  0.1453888380004263  0.5265450663706013  0.8473936595838969
  0.1553325539102135  0.1438432450949390  0.4724122222197081
  0.1553325539102135  0.8561567549050610  0.5275877777802911
  0.8485520979849627  0.8559521718254020  0.4651038042545230
  0.8485520979849627  0.1440478281745982  0.5348961957454766
  0.4751359599134812  0.1449814658956013  0.1350224858071848
  0.5379101978690849  0.1614658352322574  0.8474207857981135
  0.4751359599134812  0.8550185341043984  0.8649775141928152
  0.5379101978690849  0.8385341647677430  0.1525792142018862
  0.9735179964223033  0.6452839386333147  0.6556745743114492
  0.0293165887471016  0.3570036156683407  0.6511642883966542
  0.9735179964223033  0.3547160613666855  0.3443254256885507
  0.0293165887471016  0.6429963843316591  0.3488357116033454
  0.6469201957121171  0.6525295258620036  0.9712798258537001
  0.3589036588401621  0.6543932544881831  0.0270638694742657
  0.3589036588401621  0.3456067455118172  0.9729361305257345
  0.6469201957121171  0.3474704741379966  0.0287201741462999
  0.6561615077244820  0.9702521962637214  0.6435167878610474
  0.6561615077244820  0.0297478037362785  0.3564832121389532
  0.3496577143427800  0.9741682237734608  0.3550740859696844
  0.3496577143427800  0.0258317762265394  0.6449259140303156
  0.7983222982527403  0.8026486010922750  0.1972764884299916
  0.7983222982527403  0.1973513989077246  0.8027235115700082
  0.2534209099818406  0.5000000000000000  0.0000000000000000
  0.7537557996349961  0.5000000000000000  0.0000000000000000
  0.0016887178488047  0.2495950869961120  0.4998077452302086
  0.0016887178488047  0.7504049130038887  0.5001922547697913
  0.5048890645201897 -0.0022078417915160  0.2494338859958898
  0.5048890645201897  0.0022078417915160  0.7505661140041101
  0.2530554410186880 -0.0000000000000000  0.5000000000000000
  0.7530515556762140 -0.0000000000000000  0.5000000000000000
  0.5049597669902532  0.2496942962962831 -0.0033156516137375
  0.5049597669902532  0.7503057037037169  0.0033156516137375
  0.0016139460824120  0.5013506715496455  0.2497591796481354
  0.0016139460824120  0.4986493284503546  0.7502408203518641
 -0.0612166391863535 -0.0000000000000000  0.0000000000000000
  0.5055324824942523  0.5000000000000000  0.5000000000000000
  0.1717111655018648  0.1724936435175415  0.1718476440639924
  0.1717111655018648  0.8275063564824585  0.8281523559360074
  0.6852169765192060  0.6843158375524053  0.6849242133148349
  0.3185380762693990  0.3179920136717724  0.6812642886189257
  0.6852169765192060  0.3156841624475941  0.3150757866851659
  0.3185380762693990  0.6820079863282282  0.3187357113810738
 
  0.00000000E+00  0.00000000E+00  0.00000000E+00
  0.00000000E+00  0.00000000E+00  0.00000000E+00
  0.00000000E+00  0.00000000E+00  0.00000000E+00
  0.00000000E+00  0.00000000E+00  0.00000000E+00
  0.00000000E+00  0.00000000E+00  0.00000000E+00
  0.00000000E+00  0.00000000E+00  0.00000000E+00
  0.00000000E+00  0.00000000E+00  0.00000000E+00
  0.00000000E+00  0.00000000E+00  0.00000000E+00
  0.00000000E+00  0.00000000E+00  0.00000000E+00
  0.00000000E+00  0.00000000E+00  0.00000000E+00
  0.00000000E+00  0.00000000E+00  0.00000000E+00
  0.00000000E+00  0.00000000E+00  0.00000000E+00
  0.00000000E+00  0.00000000E+00  0.00000000E+00
  0.00000000E+00  0.00000000E+00  0.00000000E+00
  0.00000000E+00  0.00000000E+00  0.00000000E+00
  0.00000000E+00  0.00000000E+00  0.00000000E+00
  0.00000000E+00  0.00000000E+00  0.00000000E+00
  0.00000000E+00  0.00000000E+00  0.00000000E+00
  0.00000000E+00  0.00000000E+00  0.00000000E+00
  0.00000000E+00  0.00000000E+00  0.00000000E+00
  0.00000000E+00  0.00000000E+00  0.00000000E+00
  0.00000000E+00  0.00000000E+00  0.00000000E+00
  0.00000000E+00  0.00000000E+00  0.00000000E+00
  0.00000000E+00  0.00000000E+00  0.00000000E+00
  0.00000000E+00  0.00000000E+00  0.00000000E+00
  0.00000000E+00  0.00000000E+00  0.00000000E+00
  0.00000000E+00  0.00000000E+00  0.00000000E+00
  0.00000000E+00  0.00000000E+00  0.00000000E+00
  0.00000000E+00  0.00000000E+00  0.00000000E+00
  0.00000000E+00  0.00000000E+00  0.00000000E+00
  0.00000000E+00  0.00000000E+00  0.00000000E+00
  0.00000000E+00  0.00000000E+00  0.00000000E+00
  0.00000000E+00  0.00000000E+00  0.00000000E+00
  0.00000000E+00  0.00000000E+00  0.00000000E+00
  0.00000000E+00  0.00000000E+00  0.00000000E+00
  0.00000000E+00  0.00000000E+00  0.00000000E+00
  0.00000000E+00  0.00000000E+00  0.00000000E+00
  0.00000000E+00  0.00000000E+00  0.00000000E+00
  0.00000000E+00  0.00000000E+00  0.00000000E+00
  0.00000000E+00  0.00000000E+00  0.00000000E+00
  0.00000000E+00  0.00000000E+00  0.00000000E+00
  0.00000000E+00  0.00000000E+00  0.00000000E+00
  0.00000000E+00  0.00000000E+00  0.00000000E+00
  0.00000000E+00  0.00000000E+00  0.00000000E+00
  0.00000000E+00  0.00000000E+00  0.00000000E+00
  0.00000000E+00  0.00000000E+00  0.00000000E+00
