Sodilite                                
   1.00000000000000     
     9.2771456670292576    0.0002060166902691   -0.0156498963560951
     0.0002064169269520    9.2660541412975448   -0.0002064169269520
    -0.0156498963560951   -0.0002060166902691    9.2771456670292576
   O    Na   Al   Si   Cl   K 
    24     2     6     6     2     6
Direct
  0.1484211044823417  0.4699608501987873  0.1571525993191810
  0.8597441842751236  0.5280906181587958  0.1481120568169209
  0.8516980253288399  0.4548668127061000  0.8426812429169417
  0.1378686389972106  0.5284614901743776  0.8500479293265104
  0.1462550760315174  0.1349210793534032  0.4732037939006851
  0.1593653399153078  0.8459321112315692  0.5308628128604284
  0.8563446171662167  0.8633670475917901  0.4679848843088827
  0.8375708251870579  0.1488324454225804  0.5415767876813382
  0.4739041941972575  0.1431838738123843  0.1364739643125601
  0.5403361614969397  0.1577786921844572  0.8478634418507409
  0.4674688992561747  0.8529784729006124  0.8644063167043206
  0.5319813152395598  0.8357828361717964  0.1500816852610022
  0.9584232123186618  0.6488324454225806  0.6624291748129421
  0.0320151156911171  0.3633670475917896  0.6436553828337833
  0.9691371871395716  0.3459321112315694  0.3406346600846923
  0.0267962060993151  0.6349210793534031  0.3537449239684828
  0.6521365581492591  0.6577786921844571  0.9596638385030603
  0.3635260356874399  0.6431838738123842  0.0260958058027423
  0.3499183147389980  0.3357828361717962  0.9680186847604402
  0.6355936832956794  0.3529784729006126  0.0325311007438253
  0.6573187570830583  0.9548668127060997  0.6483019746711601
  0.6499520706734894  0.0284614901743777  0.3621313610027895
  0.3428474006808191  0.9699608501987866  0.3515788955176580
  0.3518879431830791  0.0280906181587960  0.6402558157248764
  0.7927855576462037  0.2059652577088824  0.7938888918465304
  0.7061111081534696  0.7059652577088819  0.7072144423537963
  0.2499154265458489  0.4941073135263973 -0.0008148604396581
  0.7500197804949279  0.4979751997141919 -0.0038191737519024
 -0.0040897459357951  0.2463578409823244  0.5003632484492810
 -0.0003632484492807  0.7463578409823242  0.5040897459357945
  0.5008148604396579 -0.0058926864736026  0.2500845734541506
  0.5038191737519023 -0.0020248002858081  0.7499802195050721
  0.2500588621959871 -0.0054979424858901  0.4997016656039562
  0.7501480546394453 -0.0017100416131798  0.5047669877698685
  0.5003532789922424  0.2466348573537305 -0.0038454370439900
  0.5038454370439909  0.7466348573537298 -0.0003532789922425
  0.0002983343960442  0.4945020575141097  0.2499411378040128
 -0.0047669877698680  0.4982899583868202  0.7498519453605547
 -0.0388462677915314  0.0327776922263166 -0.0387427573452212
  0.5387427573452210  0.5327776922263165  0.5388462677915312
  0.1726929247803204  0.1707104888890362  0.1723061576181441
  0.8261659611411480  0.8241674517549570  0.1761656958055120
  0.1757830987020498  0.8243555520365794  0.8255273792123634
  0.3238343041944879  0.3241674517549569  0.6738340388588520
  0.6744726207876366  0.3243555520365796  0.3242169012979499
  0.3276938423818559  0.6707104888890364  0.3273070752196794
 
  0.00000000E+00  0.00000000E+00  0.00000000E+00
  0.00000000E+00  0.00000000E+00  0.00000000E+00
  0.00000000E+00  0.00000000E+00  0.00000000E+00
  0.00000000E+00  0.00000000E+00  0.00000000E+00
  0.00000000E+00  0.00000000E+00  0.00000000E+00
  0.00000000E+00  0.00000000E+00  0.00000000E+00
  0.00000000E+00  0.00000000E+00  0.00000000E+00
  0.00000000E+00  0.00000000E+00  0.00000000E+00
  0.00000000E+00  0.00000000E+00  0.00000000E+00
  0.00000000E+00  0.00000000E+00  0.00000000E+00
  0.00000000E+00  0.00000000E+00  0.00000000E+00
  0.00000000E+00  0.00000000E+00  0.00000000E+00
  0.00000000E+00  0.00000000E+00  0.00000000E+00
  0.00000000E+00  0.00000000E+00  0.00000000E+00
  0.00000000E+00  0.00000000E+00  0.00000000E+00
  0.00000000E+00  0.00000000E+00  0.00000000E+00
  0.00000000E+00  0.00000000E+00  0.00000000E+00
  0.00000000E+00  0.00000000E+00  0.00000000E+00
  0.00000000E+00  0.00000000E+00  0.00000000E+00
  0.00000000E+00  0.00000000E+00  0.00000000E+00
  0.00000000E+00  0.00000000E+00  0.00000000E+00
  0.00000000E+00  0.00000000E+00  0.00000000E+00
  0.00000000E+00  0.00000000E+00  0.00000000E+00
  0.00000000E+00  0.00000000E+00  0.00000000E+00
  0.00000000E+00  0.00000000E+00  0.00000000E+00
  0.00000000E+00  0.00000000E+00  0.00000000E+00
  0.00000000E+00  0.00000000E+00  0.00000000E+00
  0.00000000E+00  0.00000000E+00  0.00000000E+00
  0.00000000E+00  0.00000000E+00  0.00000000E+00
  0.00000000E+00  0.00000000E+00  0.00000000E+00
  0.00000000E+00  0.00000000E+00  0.00000000E+00
  0.00000000E+00  0.00000000E+00  0.00000000E+00
  0.00000000E+00  0.00000000E+00  0.00000000E+00
  0.00000000E+00  0.00000000E+00  0.00000000E+00
  0.00000000E+00  0.00000000E+00  0.00000000E+00
  0.00000000E+00  0.00000000E+00  0.00000000E+00
  0.00000000E+00  0.00000000E+00  0.00000000E+00
  0.00000000E+00  0.00000000E+00  0.00000000E+00
  0.00000000E+00  0.00000000E+00  0.00000000E+00
  0.00000000E+00  0.00000000E+00  0.00000000E+00
  0.00000000E+00  0.00000000E+00  0.00000000E+00
  0.00000000E+00  0.00000000E+00  0.00000000E+00
  0.00000000E+00  0.00000000E+00  0.00000000E+00
  0.00000000E+00  0.00000000E+00  0.00000000E+00
  0.00000000E+00  0.00000000E+00  0.00000000E+00
  0.00000000E+00  0.00000000E+00  0.00000000E+00
