Sodilite                                
   1.00000000000000     
     9.3433342280220817   -0.0092812240185127   -0.0092812242024568
    -0.0092812242024568    9.3433342280220817   -0.0092812240185127
    -0.0092812240185127   -0.0092812242024568    9.3433342280220817
   O    Na   Al   Si   Cl   K 
    24     1     6     6     2     7
Direct
  0.1485916053500244  0.4669543061707972  0.1576206180832824
  0.8600894605125533  0.5218017456627156  0.1473355178419861
  0.8504718279630586  0.4755320103129135  0.8413662630804564
  0.1385025676919951  0.5228070744074580  0.8499323109181649
  0.1576206180832824  0.1485916053500244  0.4669543061707972
  0.1473355178419861  0.8600894605125532  0.5218017456627156
  0.8413662630804564  0.8504718279630586  0.4755320103129135
  0.8499323109181649  0.1385025676919951  0.5228070744074580
  0.4669543061707972  0.1576206180832824  0.1485916053500244
  0.5218017456627156  0.1473355178419861  0.8600894605125532
  0.4755320103129135  0.8413662630804564  0.8504718279630586
  0.5228070744074580  0.8499323109181649  0.1385025676919951
  0.9774465311983418  0.6424081588985666  0.6512581462287965
  0.0225939767420507  0.3530693822431442  0.6529257912838796
  0.9737319551832717  0.3556546579989073  0.3469285531252517
  0.0236213612505935  0.6434085530051625  0.3430792150638224
  0.6424081588985666  0.6512581462287965  0.9774465311983418
  0.3530693822431442  0.6529257912838796  0.0225939767420507
  0.3556546579989073  0.3469285531252517  0.9737319551832717
  0.6434085530051624  0.3430792150638224  0.0236213612505935
  0.6512581462287965  0.9774465311983418  0.6424081588985666
  0.6529257912838796  0.0225939767420507  0.3530693822431442
  0.3469285531252517  0.9737319551832717  0.3556546579989073
  0.3430792150638224  0.0236213612505935  0.6434085530051625
  0.2052382101118827  0.2052382101118827  0.2052382101118827
  0.2481003529101060  0.4975735186154568  0.0004965219886122
  0.7484453751173819  0.4973726239990632 -0.0021270299819260
  0.0004965219886122  0.2481003529101060  0.4975735186154568
 -0.0021270299819260  0.7484453751173819  0.4973726239990632
  0.4975735186154568  0.0004965219886122  0.2481003529101060
  0.4973726239990632 -0.0021270299819260  0.7484453751173819
  0.2483575352903349  0.0010845920668780  0.4969390244479673
  0.7485871652209524 -0.0025330225801776  0.4980691998493667
  0.4969390244479673  0.2483575352903349  0.0010845920668780
  0.4980691998493667  0.7485871652209524 -0.0025330225801776
  0.0010845920668780  0.4969390244479673  0.2483575352903349
 -0.0025330225801776  0.4980691998493667  0.7485871652209524
  0.0331184737063301  0.0331184737063301  0.0331184737063301
  0.4967247809225079  0.4967247809225079  0.4967247809225079
  0.8222473306089698  0.8217168013344585  0.1776955875903697
  0.8217168013344585  0.1776955875903697  0.8222473306089698
  0.1776955875903697  0.8222473306089698  0.8217168013344585
  0.6814715945537387  0.6814715945537387  0.6814715945537387
  0.3141224530240534  0.3147385823410750  0.6854287386454032
  0.6854287386454032  0.3141224530240534  0.3147385823410750
  0.3147385823410750  0.6854287386454032  0.3141224530240534
 
  0.00000000E+00  0.00000000E+00  0.00000000E+00
  0.00000000E+00  0.00000000E+00  0.00000000E+00
  0.00000000E+00  0.00000000E+00  0.00000000E+00
  0.00000000E+00  0.00000000E+00  0.00000000E+00
  0.00000000E+00  0.00000000E+00  0.00000000E+00
  0.00000000E+00  0.00000000E+00  0.00000000E+00
  0.00000000E+00  0.00000000E+00  0.00000000E+00
  0.00000000E+00  0.00000000E+00  0.00000000E+00
  0.00000000E+00  0.00000000E+00  0.00000000E+00
  0.00000000E+00  0.00000000E+00  0.00000000E+00
  0.00000000E+00  0.00000000E+00  0.00000000E+00
  0.00000000E+00  0.00000000E+00  0.00000000E+00
  0.00000000E+00  0.00000000E+00  0.00000000E+00
  0.00000000E+00  0.00000000E+00  0.00000000E+00
  0.00000000E+00  0.00000000E+00  0.00000000E+00
  0.00000000E+00  0.00000000E+00  0.00000000E+00
  0.00000000E+00  0.00000000E+00  0.00000000E+00
  0.00000000E+00  0.00000000E+00  0.00000000E+00
  0.00000000E+00  0.00000000E+00  0.00000000E+00
  0.00000000E+00  0.00000000E+00  0.00000000E+00
  0.00000000E+00  0.00000000E+00  0.00000000E+00
  0.00000000E+00  0.00000000E+00  0.00000000E+00
  0.00000000E+00  0.00000000E+00  0.00000000E+00
  0.00000000E+00  0.00000000E+00  0.00000000E+00
  0.00000000E+00  0.00000000E+00  0.00000000E+00
  0.00000000E+00  0.00000000E+00  0.00000000E+00
  0.00000000E+00  0.00000000E+00  0.00000000E+00
  0.00000000E+00  0.00000000E+00  0.00000000E+00
  0.00000000E+00  0.00000000E+00  0.00000000E+00
  0.00000000E+00  0.00000000E+00  0.00000000E+00
  0.00000000E+00  0.00000000E+00  0.00000000E+00
  0.00000000E+00  0.00000000E+00  0.00000000E+00
  0.00000000E+00  0.00000000E+00  0.00000000E+00
  0.00000000E+00  0.00000000E+00  0.00000000E+00
  0.00000000E+00  0.00000000E+00  0.00000000E+00
  0.00000000E+00  0.00000000E+00  0.00000000E+00
  0.00000000E+00  0.00000000E+00  0.00000000E+00
  0.00000000E+00  0.00000000E+00  0.00000000E+00
  0.00000000E+00  0.00000000E+00  0.00000000E+00
  0.00000000E+00  0.00000000E+00  0.00000000E+00
  0.00000000E+00  0.00000000E+00  0.00000000E+00
  0.00000000E+00  0.00000000E+00  0.00000000E+00
  0.00000000E+00  0.00000000E+00  0.00000000E+00
  0.00000000E+00  0.00000000E+00  0.00000000E+00
  0.00000000E+00  0.00000000E+00  0.00000000E+00
  0.00000000E+00  0.00000000E+00  0.00000000E+00
