Sodilite                                
   1.00000000000000     
     9.1830367159282389    0.0240251086931935   -0.0255942906110235
     0.0240240568023688    9.1741762168600332    0.0027614464652763
    -0.0255900967555685    0.0027589657172294    9.1729613795116975
   O    Na   Al   Si   Cl   K 
    24     4     6     6     2     4
Direct
  0.1450055988642839  0.4465259717549525  0.1567699956421812
  0.8612728475080129  0.5371714583398731  0.1529583613431268
  0.8531544150143860  0.4542817955233175  0.8466461399207778
  0.1394781461208368  0.5453835076051418  0.8539007359648620
  0.1505974423627768  0.1367753588534686  0.4536680840411677
  0.1540259225633459  0.8536670014744904  0.5527172156915546
  0.8519440129751443  0.8580309726708629  0.4637786263209651
  0.8440778698607645  0.1452314954124519  0.5466306599772480
  0.4520341942255113  0.1554196846874976  0.1515176861082455
  0.5415236281347857  0.1446028128957016  0.8645632789510613
  0.4502282701368088  0.8374033388301199  0.8528498557741303
  0.5403697892649055  0.8537177847596711  0.1363082691161912
  0.9611632043601444  0.6316019807956139  0.6465143304561444
  0.0429330937521775  0.3465424616034302  0.6636582218642944
  0.9625057375551710  0.3638508989661967  0.3607179365291159
  0.0485009127002853  0.6490864966000175  0.3410665691879822
  0.6347290301739781  0.6431561772601576  0.9654354091181865
  0.3485754450350279  0.6562864175709950  0.0508602109991568
  0.3647052024358459  0.3531355604307674  0.9614687908614516
  0.6496271818125126  0.3371099955208424  0.0432091152722277
  0.6585323542569952  0.9581213145747147  0.6538685196991506
  0.6458944355480406  0.0347990578237995  0.3661671958476588
  0.3395764018242587  0.9476140485121296  0.3521579975258380
  0.3559155647785046  0.0387413687781288  0.6354261676949307
  0.1938456964363412  0.1909388191180086  0.1906733017140323
  0.8181127167750539  0.1869620960623171  0.8131875400833457
  0.1923637736126765  0.8081361683144909  0.8087181459605268
  0.2945596706170092  0.7036439866761581  0.2952406063390042
  0.2492067140389046  0.4986199022518369  0.0055852964553642
  0.7499739148098696  0.4940079198974394  0.0034004372621738
  0.0016047941103427  0.2461037019144846  0.5061122888388488
  0.0038607373490007  0.7468856428120927  0.5013196963497206
  0.4956315810679496 -0.0029061518744335  0.2531475546797435
  0.4999614890138183 -0.0058275463754462  0.7536662102889421
  0.2498449845134828 -0.0060201448135813  0.4996821590640209
  0.7502429485255763 -0.0019823098594340  0.5071449331263101
  0.5010939391494853  0.2466513969204328  0.0055445198549623
  0.4941358855709506  0.7469696551716493  0.0021895267332869
  0.0043305953037823  0.4986489540296927  0.2532959693816970
  0.0000816710098115  0.4943877173780798  0.7535001759062759
  0.0356632198363532  0.0282469167451409 -0.0285747229530075
  0.4585124581854390  0.5375268556506259  0.4622820951369894
  0.8372725887868248  0.8379674931937785  0.1627110909275056
  0.6701444198821895  0.6666784434432375  0.6713432934303959
  0.3318625683986466  0.3270721822764520  0.6726523883066422
  0.6713229317419890  0.3290313398226339  0.3343181192055701
 
  0.00000000E+00  0.00000000E+00  0.00000000E+00
  0.00000000E+00  0.00000000E+00  0.00000000E+00
  0.00000000E+00  0.00000000E+00  0.00000000E+00
  0.00000000E+00  0.00000000E+00  0.00000000E+00
  0.00000000E+00  0.00000000E+00  0.00000000E+00
  0.00000000E+00  0.00000000E+00  0.00000000E+00
  0.00000000E+00  0.00000000E+00  0.00000000E+00
  0.00000000E+00  0.00000000E+00  0.00000000E+00
  0.00000000E+00  0.00000000E+00  0.00000000E+00
  0.00000000E+00  0.00000000E+00  0.00000000E+00
  0.00000000E+00  0.00000000E+00  0.00000000E+00
  0.00000000E+00  0.00000000E+00  0.00000000E+00
  0.00000000E+00  0.00000000E+00  0.00000000E+00
  0.00000000E+00  0.00000000E+00  0.00000000E+00
  0.00000000E+00  0.00000000E+00  0.00000000E+00
  0.00000000E+00  0.00000000E+00  0.00000000E+00
  0.00000000E+00  0.00000000E+00  0.00000000E+00
  0.00000000E+00  0.00000000E+00  0.00000000E+00
  0.00000000E+00  0.00000000E+00  0.00000000E+00
  0.00000000E+00  0.00000000E+00  0.00000000E+00
  0.00000000E+00  0.00000000E+00  0.00000000E+00
  0.00000000E+00  0.00000000E+00  0.00000000E+00
  0.00000000E+00  0.00000000E+00  0.00000000E+00
  0.00000000E+00  0.00000000E+00  0.00000000E+00
  0.00000000E+00  0.00000000E+00  0.00000000E+00
  0.00000000E+00  0.00000000E+00  0.00000000E+00
  0.00000000E+00  0.00000000E+00  0.00000000E+00
  0.00000000E+00  0.00000000E+00  0.00000000E+00
  0.00000000E+00  0.00000000E+00  0.00000000E+00
  0.00000000E+00  0.00000000E+00  0.00000000E+00
  0.00000000E+00  0.00000000E+00  0.00000000E+00
  0.00000000E+00  0.00000000E+00  0.00000000E+00
  0.00000000E+00  0.00000000E+00  0.00000000E+00
  0.00000000E+00  0.00000000E+00  0.00000000E+00
  0.00000000E+00  0.00000000E+00  0.00000000E+00
  0.00000000E+00  0.00000000E+00  0.00000000E+00
  0.00000000E+00  0.00000000E+00  0.00000000E+00
  0.00000000E+00  0.00000000E+00  0.00000000E+00
  0.00000000E+00  0.00000000E+00  0.00000000E+00
  0.00000000E+00  0.00000000E+00  0.00000000E+00
  0.00000000E+00  0.00000000E+00  0.00000000E+00
  0.00000000E+00  0.00000000E+00  0.00000000E+00
  0.00000000E+00  0.00000000E+00  0.00000000E+00
  0.00000000E+00  0.00000000E+00  0.00000000E+00
  0.00000000E+00  0.00000000E+00  0.00000000E+00
  0.00000000E+00  0.00000000E+00  0.00000000E+00
