Sodilite                                
   1.00000000000000     
     9.0332160994011730   -0.0002443184672616   -0.0002443184672616
    -0.0002466980816349    9.0386002585853884   -0.0321348479937311
    -0.0002466980816349   -0.0321348479937311    9.0386002585853884
   O    Na   Al   Si   Cl   K 
    24     6     6     6     2     2
Direct
  0.1330420124624382  0.4416083220822403  0.1459745306689944
  0.8543005853582335  0.5616017374716498  0.1549882473612298
  0.8615509616287276  0.4515672592490041  0.8556807271685469
  0.1445870238347773  0.5584759928278714  0.8437426512461357
  0.1537923423171931  0.1453751517333837  0.4421970847699088
  0.1419872238077462  0.8639760586160651  0.5570757389906236
  0.8426996561586965  0.8548697320185057  0.4378070501997391
  0.8514553868909498  0.1352902731938956  0.5498436459940743
  0.4389026369998446  0.1545323797227403  0.1474245621898259
  0.5458524289265466  0.1462464125244324  0.8641506994937025
  0.4381580461898287  0.8437519474648473  0.8551166239290016
  0.5584395501970075  0.8554245172922949  0.1336708433060391
  0.9389026369998447  0.6474245621898258  0.6545323797227401
  0.0458524289265467  0.3641506994937025  0.6462464125244323
  0.9381580461898288  0.3551166239290015  0.3437519474648463
  0.0584395501970078  0.6336708433060387  0.3554245172922944
  0.6330420124624381  0.6459745306689944  0.9416083220822400
  0.3543005853582332  0.6549882473612302  0.0616017374716503
  0.3615509616287273  0.3556807271685469  0.9515672592490043
  0.6445870238347774  0.3437426512461355  0.0584759928278716
  0.6537923423171935  0.9421970847699086  0.6453751517333834
  0.6419872238077459  0.0570757389906236  0.3639760586160650
  0.3426996561586968  0.9378070501997393  0.3548697320185054
  0.3514553868909492  0.0498436459940742  0.6352902731938953
  0.1834302324417177  0.1838216308930294  0.1854503226994693
  0.8112435920508398  0.8127722453421494  0.1866905180946103
  0.1825945780615373  0.8150420387485262  0.8149186052311475
  0.6834302324417176  0.6854503226994693  0.6838216308930291
  0.6825945780615371  0.3149186052311471  0.3150420387485262
  0.3112435920508395  0.6866905180946103  0.3127722453421493
  0.2465507085566542  0.5036679919654276  0.0009524100616156
  0.7465507085566542  0.5009524100616154  0.0036679919654277
 -0.0027845356212457  0.2500769203304897  0.4961000858060678
 -0.0053054260874508  0.7499163850488054  0.4992344979705658
  0.4946945739125493 -0.0007655020294340  0.2499163850488059
  0.4972154643787543 -0.0038999141939320  0.7500769203304897
  0.2467811749414981 -0.0010152422096602  0.4969341107655028
  0.7467811749414984 -0.0030658892344972  0.4989847577903396
  0.4973014944798791  0.2499955187214918  0.0050056073707011
  0.4953946077945938  0.7500284197808254 -0.0008980442557239
 -0.0046053922054061  0.4991019557442758  0.2500284197808253
 -0.0026985055201208  0.5050056073707009  0.7499955187214917
  0.0344177261434315 -0.0396342716119432  0.0393683075307871
  0.5344177261434314  0.5393683075307870  0.4603657283880570
  0.8456079924665550  0.1540400546330876  0.8471396975682761
  0.3456079924665553  0.3471396975682758  0.6540400546330881
 
  0.00000000E+00  0.00000000E+00  0.00000000E+00
  0.00000000E+00  0.00000000E+00  0.00000000E+00
  0.00000000E+00  0.00000000E+00  0.00000000E+00
  0.00000000E+00  0.00000000E+00  0.00000000E+00
  0.00000000E+00  0.00000000E+00  0.00000000E+00
  0.00000000E+00  0.00000000E+00  0.00000000E+00
  0.00000000E+00  0.00000000E+00  0.00000000E+00
  0.00000000E+00  0.00000000E+00  0.00000000E+00
  0.00000000E+00  0.00000000E+00  0.00000000E+00
  0.00000000E+00  0.00000000E+00  0.00000000E+00
  0.00000000E+00  0.00000000E+00  0.00000000E+00
  0.00000000E+00  0.00000000E+00  0.00000000E+00
  0.00000000E+00  0.00000000E+00  0.00000000E+00
  0.00000000E+00  0.00000000E+00  0.00000000E+00
  0.00000000E+00  0.00000000E+00  0.00000000E+00
  0.00000000E+00  0.00000000E+00  0.00000000E+00
  0.00000000E+00  0.00000000E+00  0.00000000E+00
  0.00000000E+00  0.00000000E+00  0.00000000E+00
  0.00000000E+00  0.00000000E+00  0.00000000E+00
  0.00000000E+00  0.00000000E+00  0.00000000E+00
  0.00000000E+00  0.00000000E+00  0.00000000E+00
  0.00000000E+00  0.00000000E+00  0.00000000E+00
  0.00000000E+00  0.00000000E+00  0.00000000E+00
  0.00000000E+00  0.00000000E+00  0.00000000E+00
  0.00000000E+00  0.00000000E+00  0.00000000E+00
  0.00000000E+00  0.00000000E+00  0.00000000E+00
  0.00000000E+00  0.00000000E+00  0.00000000E+00
  0.00000000E+00  0.00000000E+00  0.00000000E+00
  0.00000000E+00  0.00000000E+00  0.00000000E+00
  0.00000000E+00  0.00000000E+00  0.00000000E+00
  0.00000000E+00  0.00000000E+00  0.00000000E+00
  0.00000000E+00  0.00000000E+00  0.00000000E+00
  0.00000000E+00  0.00000000E+00  0.00000000E+00
  0.00000000E+00  0.00000000E+00  0.00000000E+00
  0.00000000E+00  0.00000000E+00  0.00000000E+00
  0.00000000E+00  0.00000000E+00  0.00000000E+00
  0.00000000E+00  0.00000000E+00  0.00000000E+00
  0.00000000E+00  0.00000000E+00  0.00000000E+00
  0.00000000E+00  0.00000000E+00  0.00000000E+00
  0.00000000E+00  0.00000000E+00  0.00000000E+00
  0.00000000E+00  0.00000000E+00  0.00000000E+00
  0.00000000E+00  0.00000000E+00  0.00000000E+00
  0.00000000E+00  0.00000000E+00  0.00000000E+00
  0.00000000E+00  0.00000000E+00  0.00000000E+00
  0.00000000E+00  0.00000000E+00  0.00000000E+00
  0.00000000E+00  0.00000000E+00  0.00000000E+00
