Sodilite                                
   1.00000000000000     
     9.1012926837398460    0.0116767173909271    0.0111299538302839
     0.0116649148822387    9.0978223959171203    0.0445540089144699
     0.0111137649049205    0.0445642090687977    9.0998904723239136
   O    Na   Al   Si   Cl   K 
    24     5     6     6     2     3
Direct
  0.1387022902867674  0.4546920047711691  0.1456869269631724
  0.8558521281479075  0.5546754951756159  0.1593308370852672
  0.8663297149103544  0.4500254765568320  0.8529156755074520
  0.1487086039362361  0.5574431028918031  0.8466738643458409
  0.1496817130145129  0.1358788440084450  0.4532880081923250
  0.1601361428448897  0.8554195539346751  0.5595598711107928
  0.8576646896614315  0.8631821761320071  0.4512115578852611
  0.8480972646312780  0.1487824991300994  0.5527568025117825
  0.4575414575680116  0.1490408669686041  0.1381177890149805
  0.5575839591347018  0.1565599301571871  0.8542628056658008
  0.4482641990062545  0.8536947827693723  0.8644844996177139
  0.5569707896341197  0.8462508576535497  0.1469812266835862
  0.9574744509572508  0.6288119485393189  0.6395895895283208
  0.0594314479316968  0.3472268684024289  0.6659232344514073
  0.9614889321844632  0.3716818652943263  0.3612037206524345
  0.0579560685939622  0.6566140066186392  0.3386608721934222
  0.6433786292862880  0.6525328007654237  0.9521784854845963
  0.3617536541671300  0.6527929263332544  0.0566981952903477
  0.3605537510192852  0.3489866186590512  0.9476839851364721
  0.6451173295579312  0.3518784211988258  0.0461850606593293
  0.6550764177694107  0.9520526118389706  0.6429964498757108
  0.6557624443878496  0.0477868320759853  0.3596697537609636
  0.3514131169665548  0.9481313377739724  0.3597255689353179
  0.3540369558647779  0.0549853392798391  0.6424517820463758
  0.8162859978385656  0.8144882647117371  0.1863275897610324
  0.8165697698696682  0.1849118916893861  0.8128230329191726
  0.1898248119010185  0.8107701523266704  0.8123086432552692
  0.3105306392703611  0.3059500942707587  0.6946698055367887
  0.3093210435205282  0.6949302912910110  0.3072781362198892
  0.2545970811224687  0.5031551929819265 -0.0003394924560264
  0.7557158681655587  0.5035076954845370  0.0022347781768712
  0.0064196030621589  0.2521091074221645  0.5068287450302290
  0.0091847207798969  0.7516259477835618  0.4997269414429004
  0.5050907313022485 -0.0005248503429042  0.2517509055767909
  0.5049127419113747  0.0024491029242032  0.7521012664291736
  0.2546139442635984 -0.0009677392795057  0.5037791077039258
  0.7554636769214537  0.0027496524452013  0.5023913312231152
  0.5054494879703225  0.2518141943737317 -0.0024140925896979
  0.5035492520328166  0.7517681566437686  0.0042491369491376
  0.0049127189407630  0.5085918229875498  0.2517924955838742
  0.0087906319636634  0.4974344664560512  0.7515395417499378
 -0.0298941360183868 -0.0354979314717134 -0.0351409689662799
  0.4239381827156110  0.5013188203953972  0.5015040108452463
  0.1586662128901878  0.1585275194308752  0.1575945113307098
  0.6640939192339843  0.6601347145753831  0.6606102713797901
  0.6629869488790691  0.3416262659708115  0.3401477402994755
 
  0.00000000E+00  0.00000000E+00  0.00000000E+00
  0.00000000E+00  0.00000000E+00  0.00000000E+00
  0.00000000E+00  0.00000000E+00  0.00000000E+00
  0.00000000E+00  0.00000000E+00  0.00000000E+00
  0.00000000E+00  0.00000000E+00  0.00000000E+00
  0.00000000E+00  0.00000000E+00  0.00000000E+00
  0.00000000E+00  0.00000000E+00  0.00000000E+00
  0.00000000E+00  0.00000000E+00  0.00000000E+00
  0.00000000E+00  0.00000000E+00  0.00000000E+00
  0.00000000E+00  0.00000000E+00  0.00000000E+00
  0.00000000E+00  0.00000000E+00  0.00000000E+00
  0.00000000E+00  0.00000000E+00  0.00000000E+00
  0.00000000E+00  0.00000000E+00  0.00000000E+00
  0.00000000E+00  0.00000000E+00  0.00000000E+00
  0.00000000E+00  0.00000000E+00  0.00000000E+00
  0.00000000E+00  0.00000000E+00  0.00000000E+00
  0.00000000E+00  0.00000000E+00  0.00000000E+00
  0.00000000E+00  0.00000000E+00  0.00000000E+00
  0.00000000E+00  0.00000000E+00  0.00000000E+00
  0.00000000E+00  0.00000000E+00  0.00000000E+00
  0.00000000E+00  0.00000000E+00  0.00000000E+00
  0.00000000E+00  0.00000000E+00  0.00000000E+00
  0.00000000E+00  0.00000000E+00  0.00000000E+00
  0.00000000E+00  0.00000000E+00  0.00000000E+00
  0.00000000E+00  0.00000000E+00  0.00000000E+00
  0.00000000E+00  0.00000000E+00  0.00000000E+00
  0.00000000E+00  0.00000000E+00  0.00000000E+00
  0.00000000E+00  0.00000000E+00  0.00000000E+00
  0.00000000E+00  0.00000000E+00  0.00000000E+00
  0.00000000E+00  0.00000000E+00  0.00000000E+00
  0.00000000E+00  0.00000000E+00  0.00000000E+00
  0.00000000E+00  0.00000000E+00  0.00000000E+00
  0.00000000E+00  0.00000000E+00  0.00000000E+00
  0.00000000E+00  0.00000000E+00  0.00000000E+00
  0.00000000E+00  0.00000000E+00  0.00000000E+00
  0.00000000E+00  0.00000000E+00  0.00000000E+00
  0.00000000E+00  0.00000000E+00  0.00000000E+00
  0.00000000E+00  0.00000000E+00  0.00000000E+00
  0.00000000E+00  0.00000000E+00  0.00000000E+00
  0.00000000E+00  0.00000000E+00  0.00000000E+00
  0.00000000E+00  0.00000000E+00  0.00000000E+00
  0.00000000E+00  0.00000000E+00  0.00000000E+00
  0.00000000E+00  0.00000000E+00  0.00000000E+00
  0.00000000E+00  0.00000000E+00  0.00000000E+00
  0.00000000E+00  0.00000000E+00  0.00000000E+00
  0.00000000E+00  0.00000000E+00  0.00000000E+00
