Sodilite                                
   1.00000000000000     
     9.1404111028981170    0.0000000000000000    0.0000000008446953
     0.0000000000000000    9.1709157494056761    0.0000000000000000
    -0.0000000008446953    0.0000000000000000    9.1404111028981170
   O    Na   Al   Si   Cl   K 
    24     4     6     6     2     4
Direct
  0.1292902905072484  0.4621106610559696  0.1382455795578671
  0.8450085540813269  0.5521003144944353  0.1654603519458545
  0.8707097094927516  0.4621106610559696  0.8617544204421328
  0.1549914459186733  0.5521003144944353  0.8345396480541453
  0.1535915312918583  0.1417478915530232  0.4610823683651310
  0.1504558001772276  0.8575412388204537  0.5526800541384319
  0.8495441998227725  0.8575412388204537  0.4473199458615676
  0.8464084687081415  0.1417478915530232  0.5389176316348693
  0.4616128524032219  0.1513963702676571  0.1443764677535994
  0.5383871475967781  0.1513963702676571  0.8556235322464009
  0.4463831390032439  0.8480736057017215  0.8598224840618151
  0.5536168609967562  0.8480736057017215  0.1401775159381845
  0.9473199458615681  0.6424587611795463  0.6504558001772275
  0.0389176316348691  0.3582521084469766  0.6535915312918585
  0.9610823683651307  0.3582521084469766  0.3464084687081417
  0.0526800541384322  0.6424587611795463  0.3495441998227725
  0.6401775159381849  0.6519263942982785  0.9463831390032438
  0.3598224840618158  0.6519263942982785  0.0536168609967562
  0.3556235322464008  0.3486036297323427  0.9616128524032219
  0.6443764677535991  0.3486036297323427  0.0383871475967781
  0.6654603519458547  0.9478996855055647  0.6549914459186731
  0.6382455795578672  0.0378893389440305  0.3707097094927517
  0.3345396480541453  0.9478996855055647  0.3450085540813264
  0.3617544204421330  0.0378893389440305  0.6292902905072484
  0.8037393292639743  0.8037612353877516  0.1970537946520621
  0.1962606707360256  0.8037612353877516  0.8029462053479380
  0.6970537946520620  0.6962387646122484  0.6962606707360257
  0.3029462053479381  0.6962387646122484  0.3037393292639745
  0.2498901891526359  0.5048520322375448 -0.0033043503820253
  0.7501098108473643  0.5048520322375448  0.0033043503820253
  0.0000000000000000  0.2500000000000000  0.5000000000000000
  0.0000000000000000  0.7500000000000000  0.5000000000000000
  0.4966956496179746 -0.0048520322375442  0.2501098108473640
  0.5033043503820250 -0.0048520322375442  0.7498901891526357
  0.2501540912865410 -0.0044047602986498  0.4971067204301162
  0.7498459087134588 -0.0044047602986498  0.5028932795698838
  0.5000000000000000  0.2500000000000000  0.0000000000000000
  0.5000000000000000  0.7500000000000000  0.0000000000000000
 -0.0028932795698836  0.5044047602986497  0.2498459087134589
  0.0028932795698836  0.5044047602986497  0.7501540912865412
  0.0000000000000000 -0.0769080388151236  0.0000000000000000
  0.5000000000000000  0.5769080388151230  0.5000000000000000
  0.1625773877309529  0.1640385825276685  0.1622224584456421
  0.8374226122690471  0.1640385825276685  0.8377775415543579
  0.3377775415543580  0.3359614174723318  0.6625773877309529
  0.6622224584456421  0.3359614174723318  0.3374226122690475
 
  0.00000000E+00  0.00000000E+00  0.00000000E+00
  0.00000000E+00  0.00000000E+00  0.00000000E+00
  0.00000000E+00  0.00000000E+00  0.00000000E+00
  0.00000000E+00  0.00000000E+00  0.00000000E+00
  0.00000000E+00  0.00000000E+00  0.00000000E+00
  0.00000000E+00  0.00000000E+00  0.00000000E+00
  0.00000000E+00  0.00000000E+00  0.00000000E+00
  0.00000000E+00  0.00000000E+00  0.00000000E+00
  0.00000000E+00  0.00000000E+00  0.00000000E+00
  0.00000000E+00  0.00000000E+00  0.00000000E+00
  0.00000000E+00  0.00000000E+00  0.00000000E+00
  0.00000000E+00  0.00000000E+00  0.00000000E+00
  0.00000000E+00  0.00000000E+00  0.00000000E+00
  0.00000000E+00  0.00000000E+00  0.00000000E+00
  0.00000000E+00  0.00000000E+00  0.00000000E+00
  0.00000000E+00  0.00000000E+00  0.00000000E+00
  0.00000000E+00  0.00000000E+00  0.00000000E+00
  0.00000000E+00  0.00000000E+00  0.00000000E+00
  0.00000000E+00  0.00000000E+00  0.00000000E+00
  0.00000000E+00  0.00000000E+00  0.00000000E+00
  0.00000000E+00  0.00000000E+00  0.00000000E+00
  0.00000000E+00  0.00000000E+00  0.00000000E+00
  0.00000000E+00  0.00000000E+00  0.00000000E+00
  0.00000000E+00  0.00000000E+00  0.00000000E+00
  0.00000000E+00  0.00000000E+00  0.00000000E+00
  0.00000000E+00  0.00000000E+00  0.00000000E+00
  0.00000000E+00  0.00000000E+00  0.00000000E+00
  0.00000000E+00  0.00000000E+00  0.00000000E+00
  0.00000000E+00  0.00000000E+00  0.00000000E+00
  0.00000000E+00  0.00000000E+00  0.00000000E+00
  0.00000000E+00  0.00000000E+00  0.00000000E+00
  0.00000000E+00  0.00000000E+00  0.00000000E+00
  0.00000000E+00  0.00000000E+00  0.00000000E+00
  0.00000000E+00  0.00000000E+00  0.00000000E+00
  0.00000000E+00  0.00000000E+00  0.00000000E+00
  0.00000000E+00  0.00000000E+00  0.00000000E+00
  0.00000000E+00  0.00000000E+00  0.00000000E+00
  0.00000000E+00  0.00000000E+00  0.00000000E+00
  0.00000000E+00  0.00000000E+00  0.00000000E+00
  0.00000000E+00  0.00000000E+00  0.00000000E+00
  0.00000000E+00  0.00000000E+00  0.00000000E+00
  0.00000000E+00  0.00000000E+00  0.00000000E+00
  0.00000000E+00  0.00000000E+00  0.00000000E+00
  0.00000000E+00  0.00000000E+00  0.00000000E+00
  0.00000000E+00  0.00000000E+00  0.00000000E+00
  0.00000000E+00  0.00000000E+00  0.00000000E+00
