Sodilite                                
   1.00000000000000     
     9.1086873368492469   -0.0145099789528408    0.0158422148581601
    -0.0145150385260175    9.0943277781661003    0.0137689697007642
     0.0158455557144362    0.0137761990408427    9.0955400331419707
   O    Na   Al   Si   Cl   K 
    24     5     6     6     2     3
Direct
  0.1365470604830122  0.4455668372931111  0.1437553833147014
  0.8549731105927941  0.5533932954743646  0.1567384856948018
  0.8643709913979490  0.4584044820498891  0.8503739178750865
  0.1476863538916348  0.5577916763169573  0.8445718934011198
  0.1574210100298361  0.1451936081062887  0.4414156957646029
  0.1476087479735322  0.8661763214430129  0.5557969031377824
  0.8459046458369056  0.8525651387707179  0.4470563647338546
  0.8553585091235298  0.1392997280331002  0.5404087965412150
  0.4449832343461231  0.1592261485000156  0.1473135803308297
  0.5440248317173333  0.1453900262286974  0.8636305234218622
  0.4456657941936343  0.8427538036895489  0.8520130864948769
  0.5532303633018658  0.8564156071139737  0.1343583755794246
  0.9589859497359938  0.6309877073922961  0.6369415704399662
  0.0557240806307410  0.3471944147793771  0.6628231156409039
  0.9574532361934105  0.3722297507895174  0.3593205204960053
  0.0587237311255360  0.6541498583971099  0.3355119068843617
  0.6416854348548889  0.6526148812422039  0.9527952915108375
  0.3599701168173869  0.6519102370612740  0.0565105621948692
  0.3582627531486943  0.3510822489743076  0.9451069579509350
  0.6426584560662606  0.3488743914983415  0.0431945687293690
  0.6537195433048835  0.9562808231567128  0.6416180091207869
  0.6516390847797526  0.0460361330320254  0.3557216762348641
  0.3505039502096395  0.9438703402164914  0.3594167085780061
  0.3497684414325217  0.0560763821246876  0.6392895226503224
  0.1895255188652856  0.1897633828249076  0.1881888162202619
  0.8169135120318145  0.8143861506397336  0.1865328568768058
  0.1900389911296617  0.8111356117976430  0.8112940129720758
  0.3082381171357879  0.3077112007306519  0.6933281706181710
  0.3059372880403594  0.6971915142086000  0.3031700265457355
  0.2510482119438869  0.5028121761789198 -0.0018559535153721
  0.7522385580858447  0.5029403336250092  0.0005140383087433
  0.0074287228627201  0.2518319141979591  0.5004238255550675
  0.0046739685052564  0.7516791518479228  0.4939081352280069
  0.4987780214560877  0.0020902679724385  0.2482418768416157
  0.4985982628947457 -0.0008493269420790  0.7483441983987023
  0.2513996842816330  0.0025461513036276  0.4982404269120130
  0.7522414326161764 -0.0010580632895770  0.4963179449588870
  0.4977292849100548  0.2514305661407898  0.0000516768451704
  0.4995779478919167  0.7513772828014061 -0.0013658618258896
  0.0031783964600842  0.5062157826408016  0.2486434619113271
  0.0072575951201472  0.4992373120230665  0.7483328175485258
  0.0395880146499436 -0.0333953181585194  0.0335843100555540
  0.4210240890192476  0.5026560351708189  0.4975514687201315
  0.8432138200226619  0.1566118637520091  0.8423993148877447
  0.6628295712347371  0.6597195334899414  0.6588470439537009
  0.6616715596540907  0.3404826353599073  0.3396239752616387
 
  0.00000000E+00  0.00000000E+00  0.00000000E+00
  0.00000000E+00  0.00000000E+00  0.00000000E+00
  0.00000000E+00  0.00000000E+00  0.00000000E+00
  0.00000000E+00  0.00000000E+00  0.00000000E+00
  0.00000000E+00  0.00000000E+00  0.00000000E+00
  0.00000000E+00  0.00000000E+00  0.00000000E+00
  0.00000000E+00  0.00000000E+00  0.00000000E+00
  0.00000000E+00  0.00000000E+00  0.00000000E+00
  0.00000000E+00  0.00000000E+00  0.00000000E+00
  0.00000000E+00  0.00000000E+00  0.00000000E+00
  0.00000000E+00  0.00000000E+00  0.00000000E+00
  0.00000000E+00  0.00000000E+00  0.00000000E+00
  0.00000000E+00  0.00000000E+00  0.00000000E+00
  0.00000000E+00  0.00000000E+00  0.00000000E+00
  0.00000000E+00  0.00000000E+00  0.00000000E+00
  0.00000000E+00  0.00000000E+00  0.00000000E+00
  0.00000000E+00  0.00000000E+00  0.00000000E+00
  0.00000000E+00  0.00000000E+00  0.00000000E+00
  0.00000000E+00  0.00000000E+00  0.00000000E+00
  0.00000000E+00  0.00000000E+00  0.00000000E+00
  0.00000000E+00  0.00000000E+00  0.00000000E+00
  0.00000000E+00  0.00000000E+00  0.00000000E+00
  0.00000000E+00  0.00000000E+00  0.00000000E+00
  0.00000000E+00  0.00000000E+00  0.00000000E+00
  0.00000000E+00  0.00000000E+00  0.00000000E+00
  0.00000000E+00  0.00000000E+00  0.00000000E+00
  0.00000000E+00  0.00000000E+00  0.00000000E+00
  0.00000000E+00  0.00000000E+00  0.00000000E+00
  0.00000000E+00  0.00000000E+00  0.00000000E+00
  0.00000000E+00  0.00000000E+00  0.00000000E+00
  0.00000000E+00  0.00000000E+00  0.00000000E+00
  0.00000000E+00  0.00000000E+00  0.00000000E+00
  0.00000000E+00  0.00000000E+00  0.00000000E+00
  0.00000000E+00  0.00000000E+00  0.00000000E+00
  0.00000000E+00  0.00000000E+00  0.00000000E+00
  0.00000000E+00  0.00000000E+00  0.00000000E+00
  0.00000000E+00  0.00000000E+00  0.00000000E+00
  0.00000000E+00  0.00000000E+00  0.00000000E+00
  0.00000000E+00  0.00000000E+00  0.00000000E+00
  0.00000000E+00  0.00000000E+00  0.00000000E+00
  0.00000000E+00  0.00000000E+00  0.00000000E+00
  0.00000000E+00  0.00000000E+00  0.00000000E+00
  0.00000000E+00  0.00000000E+00  0.00000000E+00
  0.00000000E+00  0.00000000E+00  0.00000000E+00
  0.00000000E+00  0.00000000E+00  0.00000000E+00
  0.00000000E+00  0.00000000E+00  0.00000000E+00
