Sodilite                                
   1.00000000000000     
     9.1511478053504707   -0.0257478732330538   -0.0257478732330538
    -0.0257508599496042    9.1589820422764152   -0.0042319365163140
    -0.0257508599496042   -0.0042319365163140    9.1589820422764152
   O    Na   Al   Si   Cl   K 
    24     4     6     6     2     4
Direct
  0.1407008530520740  0.4485149902898872  0.1474229734707410
  0.8571708159703662  0.5492207314346300  0.1520132926341251
  0.8585003822227077  0.4580636553734940  0.8474551564376808
  0.1446905597850934  0.5403204245064001  0.8431969672594759
  0.1648878293030394  0.1513569897121036  0.4480153381188498
  0.1390712208147356  0.8680567975393860  0.5388412712991190
  0.8383607874902594  0.8437432940311410  0.4453588833633707
  0.8574143236437781  0.1286430492007981  0.5352164705361220
  0.4530592729700581  0.1490851644948943  0.1422130259809848
  0.5378925033249341  0.1486395813557916  0.8542861416295761
  0.4558557227452896  0.8457818108932166  0.8574971194991419
  0.5543513400667717  0.8455414207650289  0.1393448297160116
  0.9530592729700581  0.6422130259809843  0.6490851644948942
  0.0378925033249341  0.3542861416295758  0.6486395813557918
  0.9558557227452895  0.3574971194991426  0.3457818108932166
  0.0543513400667715  0.6393448297160115  0.3455414207650289
  0.6407008530520741  0.6474229734707408  0.9485149902898874
  0.3571708159703665  0.6520132926341252  0.0492207314346299
  0.3585003822227082  0.3474551564376807  0.9580636553734935
  0.6446905597850937  0.3431969672594759  0.0403204245064005
  0.6648878293030400  0.9480153381188496  0.6513569897121033
  0.6390712208147356  0.0388412712991189  0.3680567975393864
  0.3383607874902593  0.9453588833633711  0.3437432940311410
  0.3574143236437781  0.0352164705361221  0.6286430492007977
  0.1936805455633359  0.1916373122180556  0.1916987833165639
  0.8036864143914793  0.8022758528853730  0.1957377754549030
  0.6936805455633359  0.6916987833165636  0.6916373122180559
  0.3036864143914790  0.6957377754549029  0.3022758528853726
  0.2502420545938577  0.4985097760642994 -0.0016187850564887
  0.7502420545938573  0.4983812149435113 -0.0014902239357005
  0.0032887439529116  0.2457249869175714  0.4934179816089226
 -0.0026045888629731  0.7471631718413075  0.4936069095919367
  0.4973954111370268 -0.0063930904080635  0.2471631718413073
  0.5032887439529109 -0.0065820183910773  0.7457249869175717
  0.2501305972894808 -0.0014708682080885  0.4897283883551686
  0.7501305972894807 -0.0102716116448313  0.4985291317919116
  0.4991902630126597  0.2462248206539080 -0.0014836974112232
  0.5014893836671825  0.7471745877458887 -0.0014661357008591
  0.0014893836671826  0.4985338642991409  0.2471745877458886
 -0.0008097369873404  0.4985163025887768  0.7462248206539076
 -0.0011290198879588 -0.0048229299709536  0.0724262186075551
  0.4988709801120416  0.5724262186075548  0.4951770700290465
  0.8366451650282110  0.1621706259629075  0.8361563873614474
  0.1634248298627057  0.8359873315107377  0.8333921267090970
  0.3366451650282115  0.3361563873614474  0.6621706259629078
  0.6634248298627058  0.3333921267090965  0.3359873315107380
 
  0.00000000E+00  0.00000000E+00  0.00000000E+00
  0.00000000E+00  0.00000000E+00  0.00000000E+00
  0.00000000E+00  0.00000000E+00  0.00000000E+00
  0.00000000E+00  0.00000000E+00  0.00000000E+00
  0.00000000E+00  0.00000000E+00  0.00000000E+00
  0.00000000E+00  0.00000000E+00  0.00000000E+00
  0.00000000E+00  0.00000000E+00  0.00000000E+00
  0.00000000E+00  0.00000000E+00  0.00000000E+00
  0.00000000E+00  0.00000000E+00  0.00000000E+00
  0.00000000E+00  0.00000000E+00  0.00000000E+00
  0.00000000E+00  0.00000000E+00  0.00000000E+00
  0.00000000E+00  0.00000000E+00  0.00000000E+00
  0.00000000E+00  0.00000000E+00  0.00000000E+00
  0.00000000E+00  0.00000000E+00  0.00000000E+00
  0.00000000E+00  0.00000000E+00  0.00000000E+00
  0.00000000E+00  0.00000000E+00  0.00000000E+00
  0.00000000E+00  0.00000000E+00  0.00000000E+00
  0.00000000E+00  0.00000000E+00  0.00000000E+00
  0.00000000E+00  0.00000000E+00  0.00000000E+00
  0.00000000E+00  0.00000000E+00  0.00000000E+00
  0.00000000E+00  0.00000000E+00  0.00000000E+00
  0.00000000E+00  0.00000000E+00  0.00000000E+00
  0.00000000E+00  0.00000000E+00  0.00000000E+00
  0.00000000E+00  0.00000000E+00  0.00000000E+00
  0.00000000E+00  0.00000000E+00  0.00000000E+00
  0.00000000E+00  0.00000000E+00  0.00000000E+00
  0.00000000E+00  0.00000000E+00  0.00000000E+00
  0.00000000E+00  0.00000000E+00  0.00000000E+00
  0.00000000E+00  0.00000000E+00  0.00000000E+00
  0.00000000E+00  0.00000000E+00  0.00000000E+00
  0.00000000E+00  0.00000000E+00  0.00000000E+00
  0.00000000E+00  0.00000000E+00  0.00000000E+00
  0.00000000E+00  0.00000000E+00  0.00000000E+00
  0.00000000E+00  0.00000000E+00  0.00000000E+00
  0.00000000E+00  0.00000000E+00  0.00000000E+00
  0.00000000E+00  0.00000000E+00  0.00000000E+00
  0.00000000E+00  0.00000000E+00  0.00000000E+00
  0.00000000E+00  0.00000000E+00  0.00000000E+00
  0.00000000E+00  0.00000000E+00  0.00000000E+00
  0.00000000E+00  0.00000000E+00  0.00000000E+00
  0.00000000E+00  0.00000000E+00  0.00000000E+00
  0.00000000E+00  0.00000000E+00  0.00000000E+00
  0.00000000E+00  0.00000000E+00  0.00000000E+00
  0.00000000E+00  0.00000000E+00  0.00000000E+00
  0.00000000E+00  0.00000000E+00  0.00000000E+00
  0.00000000E+00  0.00000000E+00  0.00000000E+00
