Sodilite                                
   1.00000000000000     
     9.1734267814106865   -0.0258918783096265    0.0032172397563073
    -0.0258951197449797    9.1822801626951378    0.0244342549624192
     0.0032200514440335    0.0244344061112793    9.1744744760542627
   O    Na   Al   Si   Cl   K 
    24     4     6     6     2     4
Direct
  0.1515034859514804  0.4521581298247727  0.1553828395774304
  0.8645355324312877  0.5415183297050515  0.1446540919732567
  0.8529472898810861  0.4502683027367213  0.8374777058361823
  0.1364368606714105  0.5402223079567646  0.8536527798275813
  0.1567520442863031  0.1450554328620803  0.4465844820015779
  0.1529274725779103  0.8612664045732742  0.5370824018157978
  0.8466137375290714  0.8531279059841099  0.4543481496029554
  0.8538575187289178  0.1395194528427774  0.5452527889634301
  0.4537346953440016  0.1506126518938984  0.1367795888814989
  0.5526273163125447  0.1540506423497882  0.8536132066196418
  0.4639220770704429  0.8519443983948336  0.8580019547449743
  0.5466011587836332  0.8440751886526724  0.1452129902945015
  0.9655367924996635  0.6348744345332973  0.6432929229040982
  0.0508097187601344  0.3486445164523150  0.6562027525478888
  0.9615208739142912  0.3645559001913071  0.3529841577247463
  0.0430716957688241  0.6495311872070032  0.3372633844578267
  0.6537601272607318  0.6583959383062929  0.9582412061987047
  0.3660500927372322  0.6459988075706451  0.0347460213229905
  0.3522830653707516  0.3396958284670811  0.9476687427173097
  0.6356250979907164  0.3557548764958641  0.0386458398201734
  0.6466701717002072  0.9611999547126233  0.6317902568661284
  0.6634517570774020  0.0427966351053971  0.3467025595715297
  0.3605120295711494  0.9625881222432365  0.3636442004972797
  0.3411989187928948  0.0484688768816140  0.6489412329199153
  0.1904473673323148  0.1937709006929097  0.1910220851733212
  0.8128966061557800  0.8178936872246916  0.1872438420656530
  0.8086571290654837  0.1922572928870812  0.8083226610055488
  0.2953916105637269  0.2948080742889260  0.7034906795774450
  0.2531842334211376  0.4956342278597597 -0.0029171078906442
  0.7537141831091311  0.4999469041406310 -0.0057993958147494
  0.0055934725394315  0.2492198136054334  0.4986250367130410
  0.0033612503209709  0.7499925583590206  0.4940480466245977
  0.5060396947664609  0.0015654837006240  0.2460847878714591
  0.5013170037016496  0.0038886608109444  0.7468416750907304
  0.2532702202476285  0.0043404059660358  0.4985959171331960
  0.7534777969621104  0.0000542424308927  0.4944359253293945
  0.4997348177081103  0.2498432926760670 -0.0060336888799515
  0.5071219968949974  0.7502403825008652 -0.0019891821883134
  0.0055309134062055  0.5011000810216863  0.2466462273682783
  0.0022301110780435  0.4941772527724489  0.7469874809315008
 -0.0285185845266150  0.0354335688221785  0.0281967089803897
  0.4624140034861878  0.4589292834880070  0.5374028242209782
  0.1628913614180008  0.8371722707650099  0.8378222484602784
  0.6715378672007087  0.6702219554161072  0.6669003867661930
  0.6726653592455952  0.3317676324633194  0.3270536440752754
  0.3340920548908509  0.6714178021639410  0.3288529396989568
 
  0.00000000E+00  0.00000000E+00  0.00000000E+00
  0.00000000E+00  0.00000000E+00  0.00000000E+00
  0.00000000E+00  0.00000000E+00  0.00000000E+00
  0.00000000E+00  0.00000000E+00  0.00000000E+00
  0.00000000E+00  0.00000000E+00  0.00000000E+00
  0.00000000E+00  0.00000000E+00  0.00000000E+00
  0.00000000E+00  0.00000000E+00  0.00000000E+00
  0.00000000E+00  0.00000000E+00  0.00000000E+00
  0.00000000E+00  0.00000000E+00  0.00000000E+00
  0.00000000E+00  0.00000000E+00  0.00000000E+00
  0.00000000E+00  0.00000000E+00  0.00000000E+00
  0.00000000E+00  0.00000000E+00  0.00000000E+00
  0.00000000E+00  0.00000000E+00  0.00000000E+00
  0.00000000E+00  0.00000000E+00  0.00000000E+00
  0.00000000E+00  0.00000000E+00  0.00000000E+00
  0.00000000E+00  0.00000000E+00  0.00000000E+00
  0.00000000E+00  0.00000000E+00  0.00000000E+00
  0.00000000E+00  0.00000000E+00  0.00000000E+00
  0.00000000E+00  0.00000000E+00  0.00000000E+00
  0.00000000E+00  0.00000000E+00  0.00000000E+00
  0.00000000E+00  0.00000000E+00  0.00000000E+00
  0.00000000E+00  0.00000000E+00  0.00000000E+00
  0.00000000E+00  0.00000000E+00  0.00000000E+00
  0.00000000E+00  0.00000000E+00  0.00000000E+00
  0.00000000E+00  0.00000000E+00  0.00000000E+00
  0.00000000E+00  0.00000000E+00  0.00000000E+00
  0.00000000E+00  0.00000000E+00  0.00000000E+00
  0.00000000E+00  0.00000000E+00  0.00000000E+00
  0.00000000E+00  0.00000000E+00  0.00000000E+00
  0.00000000E+00  0.00000000E+00  0.00000000E+00
  0.00000000E+00  0.00000000E+00  0.00000000E+00
  0.00000000E+00  0.00000000E+00  0.00000000E+00
  0.00000000E+00  0.00000000E+00  0.00000000E+00
  0.00000000E+00  0.00000000E+00  0.00000000E+00
  0.00000000E+00  0.00000000E+00  0.00000000E+00
  0.00000000E+00  0.00000000E+00  0.00000000E+00
  0.00000000E+00  0.00000000E+00  0.00000000E+00
  0.00000000E+00  0.00000000E+00  0.00000000E+00
  0.00000000E+00  0.00000000E+00  0.00000000E+00
  0.00000000E+00  0.00000000E+00  0.00000000E+00
  0.00000000E+00  0.00000000E+00  0.00000000E+00
  0.00000000E+00  0.00000000E+00  0.00000000E+00
  0.00000000E+00  0.00000000E+00  0.00000000E+00
  0.00000000E+00  0.00000000E+00  0.00000000E+00
  0.00000000E+00  0.00000000E+00  0.00000000E+00
  0.00000000E+00  0.00000000E+00  0.00000000E+00
