Sodilite                                
   1.00000000000000     
     9.0936826152843828   -0.0143924513512154    0.0137203769842025
    -0.0143877705792717    9.1078466039452124    0.0158392921937521
     0.0137279939977207    0.0158425663626824    9.0947887853572080
   O    Na   Al   Si   Cl   K 
    24     5     6     6     2     3
Direct
  0.1310065660429748  0.4589811215434139  0.1369539624326594
  0.8472106678430187  0.5557127806583098  0.1627995065089408
  0.8721919441014224  0.4574345252996879  0.8593134049504617
  0.1541351781558155  0.5587207657452805  0.8355346525400479
  0.1526183916727273  0.1416881363595095  0.4527867804997557
  0.1518825896182826  0.8599884202452620  0.5565041936301035
  0.8510657879988576  0.8582635020772702  0.4451220495768629
  0.8489028298508047  0.1426254384849124  0.5431850963995434
  0.4562776008890752  0.1536987119152676  0.1416139552257744
  0.5460324807650390  0.1516418062441459  0.8557146912473844
  0.4438967567835373  0.8505295512200722  0.8594459312438514
  0.5560771093903268  0.8497554551589170  0.1392936798896194
  0.9455613409570998  0.6365460126540732  0.6437421367044902
  0.0533898862568148  0.3549710790957015  0.6567246947853376
  0.9583885730957689  0.3643579372738061  0.3503713936148101
  0.0577946296368944  0.6476834001268111  0.3445846843176165
  0.6451877186975949  0.6574211578498342  0.9414036420754314
  0.3661696778850690  0.6476091584206385  0.0558195478298419
  0.3525724253048375  0.3459094524527471  0.9470621174115144
  0.6393020999801302  0.3553576077207206  0.0404136768765378
  0.6591906176989618  0.9449659238313747  0.6473094841624344
  0.6454187753424782  0.0440430839036602  0.3635898114270922
  0.3427909179169746  0.9456714876268277  0.3520271510713155
  0.3563811950823785  0.0532629187617421  0.6344010930634436
  0.8077282710022653  0.8082455442435124  0.1933067420025780
  0.1971951389744314  0.8059463912145466  0.8031644110317392
  0.6897332776847833  0.6895054926171796  0.6881590833638312
  0.3144163318950639  0.3169755781784427  0.6865080099533629
  0.3111663448592872  0.6900154548742088  0.3113234178533748
  0.2516857825912965  0.5046600043287068 -0.0061019774855958
  0.7518161526534535  0.5074308376872383  0.0004294592405933
  0.0029470195707427  0.2522341109824486  0.5005247585562469
  0.0027965302210500  0.7510467915759316  0.4981469965826146
  0.4991507022631447 -0.0014227860931439  0.2483376835725714
  0.5020697221178099 -0.0012211797156948  0.7482559205086134
  0.2513753525198487 -0.0004173235240286  0.4986407094330694
  0.7514262654135180 -0.0022625135690888  0.5000446001589206
  0.4989584243639536  0.2522436927336953 -0.0036811552491326
  0.5025398837991262  0.7513954917206740 -0.0017446888634489
 -0.0007481839705626  0.5072417048879870  0.2483439399659227
  0.0061965822559315  0.5031679142407547  0.7486337210345307
  0.0026941595635440 -0.0790380157606888 -0.0024860614191105
  0.4665900492441962  0.5397253366464891  0.5335970407187903
  0.1597073542998955  0.1627939714056513  0.1588103697470442
  0.8405160943499073  0.1616462468414223  0.8396503088615844
  0.6565929833604293  0.3432478198137690  0.3424193729470301
 
  0.00000000E+00  0.00000000E+00  0.00000000E+00
  0.00000000E+00  0.00000000E+00  0.00000000E+00
  0.00000000E+00  0.00000000E+00  0.00000000E+00
  0.00000000E+00  0.00000000E+00  0.00000000E+00
  0.00000000E+00  0.00000000E+00  0.00000000E+00
  0.00000000E+00  0.00000000E+00  0.00000000E+00
  0.00000000E+00  0.00000000E+00  0.00000000E+00
  0.00000000E+00  0.00000000E+00  0.00000000E+00
  0.00000000E+00  0.00000000E+00  0.00000000E+00
  0.00000000E+00  0.00000000E+00  0.00000000E+00
  0.00000000E+00  0.00000000E+00  0.00000000E+00
  0.00000000E+00  0.00000000E+00  0.00000000E+00
  0.00000000E+00  0.00000000E+00  0.00000000E+00
  0.00000000E+00  0.00000000E+00  0.00000000E+00
  0.00000000E+00  0.00000000E+00  0.00000000E+00
  0.00000000E+00  0.00000000E+00  0.00000000E+00
  0.00000000E+00  0.00000000E+00  0.00000000E+00
  0.00000000E+00  0.00000000E+00  0.00000000E+00
  0.00000000E+00  0.00000000E+00  0.00000000E+00
  0.00000000E+00  0.00000000E+00  0.00000000E+00
  0.00000000E+00  0.00000000E+00  0.00000000E+00
  0.00000000E+00  0.00000000E+00  0.00000000E+00
  0.00000000E+00  0.00000000E+00  0.00000000E+00
  0.00000000E+00  0.00000000E+00  0.00000000E+00
  0.00000000E+00  0.00000000E+00  0.00000000E+00
  0.00000000E+00  0.00000000E+00  0.00000000E+00
  0.00000000E+00  0.00000000E+00  0.00000000E+00
  0.00000000E+00  0.00000000E+00  0.00000000E+00
  0.00000000E+00  0.00000000E+00  0.00000000E+00
  0.00000000E+00  0.00000000E+00  0.00000000E+00
  0.00000000E+00  0.00000000E+00  0.00000000E+00
  0.00000000E+00  0.00000000E+00  0.00000000E+00
  0.00000000E+00  0.00000000E+00  0.00000000E+00
  0.00000000E+00  0.00000000E+00  0.00000000E+00
  0.00000000E+00  0.00000000E+00  0.00000000E+00
  0.00000000E+00  0.00000000E+00  0.00000000E+00
  0.00000000E+00  0.00000000E+00  0.00000000E+00
  0.00000000E+00  0.00000000E+00  0.00000000E+00
  0.00000000E+00  0.00000000E+00  0.00000000E+00
  0.00000000E+00  0.00000000E+00  0.00000000E+00
  0.00000000E+00  0.00000000E+00  0.00000000E+00
  0.00000000E+00  0.00000000E+00  0.00000000E+00
  0.00000000E+00  0.00000000E+00  0.00000000E+00
  0.00000000E+00  0.00000000E+00  0.00000000E+00
  0.00000000E+00  0.00000000E+00  0.00000000E+00
  0.00000000E+00  0.00000000E+00  0.00000000E+00
