Sodilite                                
   1.00000000000000     
     9.1083034887255376    0.0150764548767684   -0.0160449743545742
     0.0150803755236932    9.0938142541585787    0.0139821231155973
    -0.0160477311832409    0.0139893568186389    9.0949761475676816
   O    Na   Al   Si   Cl   K 
    24     5     6     6     2     3
Direct
  0.1476709968933922  0.4422481760209070  0.1554239756921537
  0.8643588017538584  0.5416357251920515  0.1496133404684539
  0.8549467620361660  0.4466263428874253  0.8432832959783333
  0.1365527690612665  0.5543953676269627  0.8562087769235140
  0.1476222343225802  0.1338382397680091  0.4442458611671700
  0.1573848765763901  0.8548012196654289  0.5585398430141473
  0.8553553738199141  0.8607007824848794  0.4595348957759954
  0.8459264199639981  0.1474198232347199  0.5529467587498462
  0.4456941503875675  0.1571819811861618  0.1479598103493692
  0.5532414756556019  0.1436126357314790  0.8656093849655234
  0.4450335483940844  0.8408414709872607  0.8527313246566747
  0.5440755747818844  0.8545876732121379  0.1363940642054360
  0.9574065406526067  0.6278079505468404  0.6406964618296079
  0.0586784134686730  0.3458477575752222  0.6644531210825604
  0.9589425968226143  0.3689869309696743  0.3630065667334339
  0.0557226218154665  0.6528034994463734  0.3372176300246214
  0.6426635627266352  0.6511119240088168  0.9567789708435215
  0.3582348364158805  0.6489599354831276  0.0549002872382631
  0.3599808011677010  0.3480846356385631  0.9435311997402364
  0.6417317485515515  0.3473723974851545  0.0472360392733798
  0.6516821773742527  0.9539141381720958  0.6443014620444083
  0.6537015576684464  0.0437396971845314  0.3583938481767389
  0.3497483251441828  0.9439150933641444  0.3606601700656509
  0.3505112014900076  0.0561197923199029  0.6405969898682148
  0.1900986702847346  0.1889160582656162  0.1887313762346397
  0.8169784585970010  0.1856675235912381  0.8134097432074470
  0.1895878767788705  0.8102071526548859  0.8117657663075326
  0.3058440111691966  0.3027105520813384  0.6969262715653696
  0.3081840572224852  0.6923137151968549  0.3066445107303611
  0.2510458787238870  0.4972004826625766  0.0018656327488222
  0.7522423429119796  0.4970544522568588 -0.0005040185625557
  0.0046524615552452  0.2483188678146934  0.5060853102452603
  0.0074046540901107  0.7481665503857490  0.4995720589082034
  0.4986126329151273  0.0008122210284645  0.2516595946347009
  0.4988296797199740 -0.0020700155489691  0.7517528902733259
  0.2514119356403883 -0.0025719317897820  0.5017469077053309
  0.7522622787006424  0.0010402013081981  0.5036879017159808
  0.4996440016070802  0.2486344467478680  0.0013825867759936
  0.4977727897850934  0.7485479700637695 -0.0000156996104719
  0.0072168009073743  0.5007889638999469  0.2516557748514195
  0.0031218957782098  0.4937725471388901  0.7513711059795907
  0.0396442062368435  0.0333974441734052 -0.0335902625326727
  0.4209380165248143  0.4973190415068787  0.5024773833464451
  0.8432818555162771  0.8434380578865946  0.1575528911373115
  0.6615994128895601  0.6594817430998503  0.6603654417119769
  0.6627587155003817  0.3403007653832052  0.3411927537587353
 
  0.00000000E+00  0.00000000E+00  0.00000000E+00
  0.00000000E+00  0.00000000E+00  0.00000000E+00
  0.00000000E+00  0.00000000E+00  0.00000000E+00
  0.00000000E+00  0.00000000E+00  0.00000000E+00
  0.00000000E+00  0.00000000E+00  0.00000000E+00
  0.00000000E+00  0.00000000E+00  0.00000000E+00
  0.00000000E+00  0.00000000E+00  0.00000000E+00
  0.00000000E+00  0.00000000E+00  0.00000000E+00
  0.00000000E+00  0.00000000E+00  0.00000000E+00
  0.00000000E+00  0.00000000E+00  0.00000000E+00
  0.00000000E+00  0.00000000E+00  0.00000000E+00
  0.00000000E+00  0.00000000E+00  0.00000000E+00
  0.00000000E+00  0.00000000E+00  0.00000000E+00
  0.00000000E+00  0.00000000E+00  0.00000000E+00
  0.00000000E+00  0.00000000E+00  0.00000000E+00
  0.00000000E+00  0.00000000E+00  0.00000000E+00
  0.00000000E+00  0.00000000E+00  0.00000000E+00
  0.00000000E+00  0.00000000E+00  0.00000000E+00
  0.00000000E+00  0.00000000E+00  0.00000000E+00
  0.00000000E+00  0.00000000E+00  0.00000000E+00
  0.00000000E+00  0.00000000E+00  0.00000000E+00
  0.00000000E+00  0.00000000E+00  0.00000000E+00
  0.00000000E+00  0.00000000E+00  0.00000000E+00
  0.00000000E+00  0.00000000E+00  0.00000000E+00
  0.00000000E+00  0.00000000E+00  0.00000000E+00
  0.00000000E+00  0.00000000E+00  0.00000000E+00
  0.00000000E+00  0.00000000E+00  0.00000000E+00
  0.00000000E+00  0.00000000E+00  0.00000000E+00
  0.00000000E+00  0.00000000E+00  0.00000000E+00
  0.00000000E+00  0.00000000E+00  0.00000000E+00
  0.00000000E+00  0.00000000E+00  0.00000000E+00
  0.00000000E+00  0.00000000E+00  0.00000000E+00
  0.00000000E+00  0.00000000E+00  0.00000000E+00
  0.00000000E+00  0.00000000E+00  0.00000000E+00
  0.00000000E+00  0.00000000E+00  0.00000000E+00
  0.00000000E+00  0.00000000E+00  0.00000000E+00
  0.00000000E+00  0.00000000E+00  0.00000000E+00
  0.00000000E+00  0.00000000E+00  0.00000000E+00
  0.00000000E+00  0.00000000E+00  0.00000000E+00
  0.00000000E+00  0.00000000E+00  0.00000000E+00
  0.00000000E+00  0.00000000E+00  0.00000000E+00
  0.00000000E+00  0.00000000E+00  0.00000000E+00
  0.00000000E+00  0.00000000E+00  0.00000000E+00
  0.00000000E+00  0.00000000E+00  0.00000000E+00
  0.00000000E+00  0.00000000E+00  0.00000000E+00
  0.00000000E+00  0.00000000E+00  0.00000000E+00
