Sodilite                                
   1.00000000000000     
     9.1738753719203192   -0.0033669622840865   -0.0249213846802103
    -0.0033644104971876    9.1726399553017437   -0.0264980031697089
    -0.0249227789171773   -0.0265028464317364    9.1824119150687746
   O    Na   Al   Si   Cl   K 
    24     4     6     6     2     4
Direct
  0.1452609245238818  0.4533517688706525  0.1559435448248966
  0.8580689566883695  0.5362534422535595  0.1480231757588944
  0.8536655087035857  0.4472462813819783  0.8459331204700069
  0.1367747637818426  0.5463377006016034  0.8494502917779054
  0.1446499157670706  0.1354988420472922  0.4584817231802413
  0.1554024202344940  0.8485336668047131  0.5479587587990179
  0.8536746729230926  0.8636750163929303  0.4595888214798510
  0.8374710189996526  0.1471436213832535  0.5497836863316768
  0.4542787928363943  0.1533983312632464  0.1468955513186532
  0.5453668594322715  0.1460693184023017  0.8605685123483476
  0.4464879131766974  0.8432045953063084  0.8549798248310819
  0.5372209996119593  0.8470947978460394  0.1387320036150864
  0.9476527460288231  0.6479487734552597  0.6605073818688808
  0.0387485448610017  0.3647013138892796  0.6439766508322005
  0.9580717196711285  0.3460855190515979  0.3413946126724684
  0.0347903598708594  0.6337741329654806  0.3541857198324576
  0.6491013355997395  0.6589222733976393  0.9515174584002090
  0.3638904809357841  0.6392887586951856  0.0375429492577384
  0.3465569689722535  0.3363707323556554  0.9570723904538985
  0.6316302249853494  0.3534890020972981  0.0388552682294827
  0.6563758169506196  0.9491857157626791  0.6515174823916282
  0.6430827444618650  0.0345849579207669  0.3653531942517769
  0.3370481230297445  0.9567477717291961  0.3502912247548182
  0.3532328769471106  0.0384954466240933  0.6351940869997905
  0.1869284554622228  0.1867804432002851  0.1817219232565799
  0.8081421549098580  0.1911792014894767  0.8076796225441630
  0.1908469074644123  0.8093379244443799  0.8061876303692138
  0.7036708134819861  0.7048008365023962  0.7054620144383124
  0.2461225937061378  0.4938704612038338 -0.0015753889863747
  0.7468770106690782  0.4986986776484726 -0.0039029883369840
 -0.0058109844839264  0.2463572006205309  0.4999891485539127
 -0.0029281999412488  0.7468534903340630  0.5044052929628133
  0.4939712119583340 -0.0033746086271959  0.2500421801125898
  0.4986534624512436 -0.0056254659716315  0.7507970080101365
  0.2466482001405702 -0.0055490492565616  0.4988430194795873
  0.7469877614458067 -0.0021895571892009  0.5059109157873924
  0.4943600722792009  0.2464866578976449 -0.0000607949651129
  0.4986655058074221  0.7467084671420602 -0.0043487504436312
 -0.0019769170336020  0.4928109345565809  0.2497496549546303
 -0.0060344304453943  0.5003662767138434  0.7501541782237973
  0.0281851326698384  0.0285153258860516 -0.0358776769484938
  0.5375058656777838  0.5376955474434705  0.5416014735328836
  0.8379746246646292  0.8372827408995496  0.1626875545144585
  0.3270393521558233  0.3272804123252532  0.6681331914523676
  0.6666313456967305  0.3286848825943829  0.3299015433827114
  0.3290353722695036  0.6656274196443021  0.3287518134240375
 
  0.00000000E+00  0.00000000E+00  0.00000000E+00
  0.00000000E+00  0.00000000E+00  0.00000000E+00
  0.00000000E+00  0.00000000E+00  0.00000000E+00
  0.00000000E+00  0.00000000E+00  0.00000000E+00
  0.00000000E+00  0.00000000E+00  0.00000000E+00
  0.00000000E+00  0.00000000E+00  0.00000000E+00
  0.00000000E+00  0.00000000E+00  0.00000000E+00
  0.00000000E+00  0.00000000E+00  0.00000000E+00
  0.00000000E+00  0.00000000E+00  0.00000000E+00
  0.00000000E+00  0.00000000E+00  0.00000000E+00
  0.00000000E+00  0.00000000E+00  0.00000000E+00
  0.00000000E+00  0.00000000E+00  0.00000000E+00
  0.00000000E+00  0.00000000E+00  0.00000000E+00
  0.00000000E+00  0.00000000E+00  0.00000000E+00
  0.00000000E+00  0.00000000E+00  0.00000000E+00
  0.00000000E+00  0.00000000E+00  0.00000000E+00
  0.00000000E+00  0.00000000E+00  0.00000000E+00
  0.00000000E+00  0.00000000E+00  0.00000000E+00
  0.00000000E+00  0.00000000E+00  0.00000000E+00
  0.00000000E+00  0.00000000E+00  0.00000000E+00
  0.00000000E+00  0.00000000E+00  0.00000000E+00
  0.00000000E+00  0.00000000E+00  0.00000000E+00
  0.00000000E+00  0.00000000E+00  0.00000000E+00
  0.00000000E+00  0.00000000E+00  0.00000000E+00
  0.00000000E+00  0.00000000E+00  0.00000000E+00
  0.00000000E+00  0.00000000E+00  0.00000000E+00
  0.00000000E+00  0.00000000E+00  0.00000000E+00
  0.00000000E+00  0.00000000E+00  0.00000000E+00
  0.00000000E+00  0.00000000E+00  0.00000000E+00
  0.00000000E+00  0.00000000E+00  0.00000000E+00
  0.00000000E+00  0.00000000E+00  0.00000000E+00
  0.00000000E+00  0.00000000E+00  0.00000000E+00
  0.00000000E+00  0.00000000E+00  0.00000000E+00
  0.00000000E+00  0.00000000E+00  0.00000000E+00
  0.00000000E+00  0.00000000E+00  0.00000000E+00
  0.00000000E+00  0.00000000E+00  0.00000000E+00
  0.00000000E+00  0.00000000E+00  0.00000000E+00
  0.00000000E+00  0.00000000E+00  0.00000000E+00
  0.00000000E+00  0.00000000E+00  0.00000000E+00
  0.00000000E+00  0.00000000E+00  0.00000000E+00
  0.00000000E+00  0.00000000E+00  0.00000000E+00
  0.00000000E+00  0.00000000E+00  0.00000000E+00
  0.00000000E+00  0.00000000E+00  0.00000000E+00
  0.00000000E+00  0.00000000E+00  0.00000000E+00
  0.00000000E+00  0.00000000E+00  0.00000000E+00
  0.00000000E+00  0.00000000E+00  0.00000000E+00
