Sodilite                                
   1.00000000000000     
     9.2275717877393131   -0.0134182906291591    0.0363037891986050
    -0.0134122497062704    9.2263601114066063    0.0149019178923604
     0.0363191809426051    0.0149088229515489    9.2270524556533999
   O    Na   Al   Si   Cl   K 
    24     3     6     6     2     5
Direct
  0.1354498183081127  0.4692581555370602  0.1419511650197798
  0.8480079018025233  0.5443543824786045  0.1604522672337608
  0.8678221953171442  0.4681364085953796  0.8536361621556131
  0.1528025614484626  0.5503693739899584  0.8380545484321955
  0.1498317282597902  0.1427899187049052  0.4622622039837433
  0.1574063897192893  0.8578813671692407  0.5450902674262188
  0.8495509835816005  0.8602824483755970  0.4593452157738164
  0.8474622586475082  0.1486932334673287  0.5335183559960756
  0.4646079171026724  0.1597499777417841  0.1437309871766343
  0.5383719050892981  0.1531199672413317  0.8583538614532734
  0.4568340138653579  0.8493062452295069  0.8537399764097582
  0.5397946534032453  0.8519769746147682  0.1412365091777750
  0.9647579564495915  0.6378959161750172  0.6423442627719772
  0.0452467814986685  0.3528723625183498  0.6603775651568452
  0.9682588658037398  0.3673162867250258  0.3515481753055656
  0.0383253138277402  0.6545954836346346  0.3401413135752238
  0.6506287262106404  0.6641481369581828  0.9604888966613078
  0.3658692542146330  0.6489345504688108  0.0365727605476473
  0.3493004870257227  0.3442633711157449  0.9561331099993430
  0.6378675572350095  0.3587767386027751  0.0299765947405344
  0.6492264270917385  0.9677020175380442  0.6372061696805617
  0.6586772731912299  0.0375372542435987  0.3495544210066421
  0.3529271890019920  0.9681266999502504  0.3622452371116995
  0.3430782149908851  0.0481145013094412  0.6486265798475018
  0.8090577470901253  0.8067287297910921  0.1911615563064432
  0.1988787126973256  0.8027993714622977  0.8026194426241386
  0.2975383746142757  0.2979792867101033  0.7036803678230591
  0.2511404959978492  0.5044585289234964 -0.0060524977134336
  0.7521660715106488  0.5088256543685946 -0.0005753733022852
  0.0028561812619416  0.2555553507246901  0.5014841236610877
  0.0035239324478775  0.7550738367476956  0.4975357196224029
  0.5022978076603540  0.0052112878071318  0.2482688859853620
  0.4985448841462171  0.0046077143511606  0.7486402846641089
  0.2511636422481816  0.0046848399125983  0.5035556100720053
  0.7516780503019451  0.0043177644893407  0.4957681742119599
  0.4980021259308277  0.2551088869017135 -0.0031686678360385
  0.5029299806705078  0.7546046359022529 -0.0025976656403990
 -0.0012810996246112  0.5090820217491917  0.2480673421325075
  0.0073140326870476  0.5034577730090773  0.7486041900719431
  0.0039280835236895 -0.0640961147954468 -0.0037531027071034
  0.4632250500277306  0.4669839539096168  0.5368563974155192
  0.1675099849282875  0.1694860704652869  0.1686113102305286
  0.8319330676337132  0.1686805021972249  0.8311016862459505
  0.6749650258208828  0.6744583107582228  0.6706170248303461
  0.6719342261553181  0.3307940245138257  0.3268301203145280
  0.3285872491832675  0.6749957977154917  0.3261584643438747
 
  0.00000000E+00  0.00000000E+00  0.00000000E+00
  0.00000000E+00  0.00000000E+00  0.00000000E+00
  0.00000000E+00  0.00000000E+00  0.00000000E+00
  0.00000000E+00  0.00000000E+00  0.00000000E+00
  0.00000000E+00  0.00000000E+00  0.00000000E+00
  0.00000000E+00  0.00000000E+00  0.00000000E+00
  0.00000000E+00  0.00000000E+00  0.00000000E+00
  0.00000000E+00  0.00000000E+00  0.00000000E+00
  0.00000000E+00  0.00000000E+00  0.00000000E+00
  0.00000000E+00  0.00000000E+00  0.00000000E+00
  0.00000000E+00  0.00000000E+00  0.00000000E+00
  0.00000000E+00  0.00000000E+00  0.00000000E+00
  0.00000000E+00  0.00000000E+00  0.00000000E+00
  0.00000000E+00  0.00000000E+00  0.00000000E+00
  0.00000000E+00  0.00000000E+00  0.00000000E+00
  0.00000000E+00  0.00000000E+00  0.00000000E+00
  0.00000000E+00  0.00000000E+00  0.00000000E+00
  0.00000000E+00  0.00000000E+00  0.00000000E+00
  0.00000000E+00  0.00000000E+00  0.00000000E+00
  0.00000000E+00  0.00000000E+00  0.00000000E+00
  0.00000000E+00  0.00000000E+00  0.00000000E+00
  0.00000000E+00  0.00000000E+00  0.00000000E+00
  0.00000000E+00  0.00000000E+00  0.00000000E+00
  0.00000000E+00  0.00000000E+00  0.00000000E+00
  0.00000000E+00  0.00000000E+00  0.00000000E+00
  0.00000000E+00  0.00000000E+00  0.00000000E+00
  0.00000000E+00  0.00000000E+00  0.00000000E+00
  0.00000000E+00  0.00000000E+00  0.00000000E+00
  0.00000000E+00  0.00000000E+00  0.00000000E+00
  0.00000000E+00  0.00000000E+00  0.00000000E+00
  0.00000000E+00  0.00000000E+00  0.00000000E+00
  0.00000000E+00  0.00000000E+00  0.00000000E+00
  0.00000000E+00  0.00000000E+00  0.00000000E+00
  0.00000000E+00  0.00000000E+00  0.00000000E+00
  0.00000000E+00  0.00000000E+00  0.00000000E+00
  0.00000000E+00  0.00000000E+00  0.00000000E+00
  0.00000000E+00  0.00000000E+00  0.00000000E+00
  0.00000000E+00  0.00000000E+00  0.00000000E+00
  0.00000000E+00  0.00000000E+00  0.00000000E+00
  0.00000000E+00  0.00000000E+00  0.00000000E+00
  0.00000000E+00  0.00000000E+00  0.00000000E+00
  0.00000000E+00  0.00000000E+00  0.00000000E+00
  0.00000000E+00  0.00000000E+00  0.00000000E+00
  0.00000000E+00  0.00000000E+00  0.00000000E+00
  0.00000000E+00  0.00000000E+00  0.00000000E+00
  0.00000000E+00  0.00000000E+00  0.00000000E+00
