Sodilite                                
   1.00000000000000     
     8.9803070781546062   -0.0154816256765012   -0.0154816230196096
    -0.0154816230196096    8.9803070781546062    0.0154816256765012
    -0.0154816256765012    0.0154816230196096    8.9803070781546062
   O    Na   Al   Si   Cl   K 
    24     7     6     6     2     1
Direct
  0.1417529434993706  0.4374603360065136  0.1475432856455293
  0.8612192958061486  0.5595574179035510  0.1489885872420230
  0.8613479451124436  0.4363014185450463  0.8479809348889104
  0.1388875604032713  0.5633389759483151  0.8499535418267805
  0.1520190651110898  0.1386520548875565  0.4363014185450463
  0.1500464581732193  0.8611124395967291  0.5633389759483151
  0.8524567143544708  0.8582470565006296  0.4374603360065136
  0.8510114127579770  0.1387807041938512  0.5595574179035510
  0.4404425820964489  0.1489885872420230  0.1387807041938512
  0.5625396639934858  0.1475432856455293  0.8582470565006296
  0.4366610240516847  0.8499535418267805  0.8611124395967291
  0.5636985814549534  0.8479809348889104  0.1386520548875565
  0.9394001599925592  0.6331247634691818  0.6430445091076107
  0.0644075424507241  0.3547377413744235  0.6534437194617086
  0.9473012989686090  0.3642826770860604  0.3540070008529230
  0.0650379616924435  0.6443858227417730  0.3438036245172071
  0.6452622586255767  0.6534437194617086  0.9355924575492760
  0.3668752365308180  0.6430445091076107  0.0605998400074408
  0.3556141772582268  0.3438036245172071  0.9349620383075565
  0.6357173229139396  0.3540070008529230  0.0526987010313907
  0.6561963754827932  0.9349620383075565  0.6443858227417730
  0.6459929991470768  0.0526987010313907  0.3642826770860604
  0.3465562805382912  0.9355924575492760  0.3547377413744235
  0.3569554908923898  0.0605998400074408  0.6331247634691818
  0.1792627467150325  0.1775672783896050  0.1763999718009882
  0.8236000281990117  0.8207372532849678  0.1775672783896050
  0.8224327216103950  0.1763999718009882  0.8207372532849678
  0.1807549515542921  0.8192450484457080  0.8192450484457080
  0.6851897014982785  0.6823670213395858  0.6829274528742263
  0.3170725471257738  0.3148102985017216  0.6823670213395858
  0.3176329786604143  0.6829274528742263  0.3148102985017216
  0.2515412103645888  0.4974294137060110 -0.0033168007010630
  0.7519592287846638  0.5003064723634747 -0.0034794336593832
  0.0034794336593832  0.2480407712153364  0.5003064723634747
  0.0033168007010630  0.7484587896354112  0.4974294137060110
  0.4996935276365257 -0.0034794336593832  0.2480407712153364
  0.5025705862939892 -0.0033168007010630  0.7484587896354112
  0.2516553636291911 -0.0019576385711966  0.4970982297917891
  0.7518798868783677 -0.0039208856978673  0.5009303917705873
  0.4990696082294131  0.2481201131216326 -0.0039208856978673
  0.5029017702082110  0.7483446363708087 -0.0019576385711966
  0.0039208856978673  0.5009303917705873  0.2481201131216325
  0.0019576385711966  0.4970982297917891  0.7483446363708087
  0.0021275220583765 -0.0021275220583765 -0.0021275220583765
  0.4598584837726973  0.5401415162273024  0.5401415162273024
  0.6507220268432566  0.3492779731567431  0.3492779731567431
 
  0.00000000E+00  0.00000000E+00  0.00000000E+00
  0.00000000E+00  0.00000000E+00  0.00000000E+00
  0.00000000E+00  0.00000000E+00  0.00000000E+00
  0.00000000E+00  0.00000000E+00  0.00000000E+00
  0.00000000E+00  0.00000000E+00  0.00000000E+00
  0.00000000E+00  0.00000000E+00  0.00000000E+00
  0.00000000E+00  0.00000000E+00  0.00000000E+00
  0.00000000E+00  0.00000000E+00  0.00000000E+00
  0.00000000E+00  0.00000000E+00  0.00000000E+00
  0.00000000E+00  0.00000000E+00  0.00000000E+00
  0.00000000E+00  0.00000000E+00  0.00000000E+00
  0.00000000E+00  0.00000000E+00  0.00000000E+00
  0.00000000E+00  0.00000000E+00  0.00000000E+00
  0.00000000E+00  0.00000000E+00  0.00000000E+00
  0.00000000E+00  0.00000000E+00  0.00000000E+00
  0.00000000E+00  0.00000000E+00  0.00000000E+00
  0.00000000E+00  0.00000000E+00  0.00000000E+00
  0.00000000E+00  0.00000000E+00  0.00000000E+00
  0.00000000E+00  0.00000000E+00  0.00000000E+00
  0.00000000E+00  0.00000000E+00  0.00000000E+00
  0.00000000E+00  0.00000000E+00  0.00000000E+00
  0.00000000E+00  0.00000000E+00  0.00000000E+00
  0.00000000E+00  0.00000000E+00  0.00000000E+00
  0.00000000E+00  0.00000000E+00  0.00000000E+00
  0.00000000E+00  0.00000000E+00  0.00000000E+00
  0.00000000E+00  0.00000000E+00  0.00000000E+00
  0.00000000E+00  0.00000000E+00  0.00000000E+00
  0.00000000E+00  0.00000000E+00  0.00000000E+00
  0.00000000E+00  0.00000000E+00  0.00000000E+00
  0.00000000E+00  0.00000000E+00  0.00000000E+00
  0.00000000E+00  0.00000000E+00  0.00000000E+00
  0.00000000E+00  0.00000000E+00  0.00000000E+00
  0.00000000E+00  0.00000000E+00  0.00000000E+00
  0.00000000E+00  0.00000000E+00  0.00000000E+00
  0.00000000E+00  0.00000000E+00  0.00000000E+00
  0.00000000E+00  0.00000000E+00  0.00000000E+00
  0.00000000E+00  0.00000000E+00  0.00000000E+00
  0.00000000E+00  0.00000000E+00  0.00000000E+00
  0.00000000E+00  0.00000000E+00  0.00000000E+00
  0.00000000E+00  0.00000000E+00  0.00000000E+00
  0.00000000E+00  0.00000000E+00  0.00000000E+00
  0.00000000E+00  0.00000000E+00  0.00000000E+00
  0.00000000E+00  0.00000000E+00  0.00000000E+00
  0.00000000E+00  0.00000000E+00  0.00000000E+00
  0.00000000E+00  0.00000000E+00  0.00000000E+00
  0.00000000E+00  0.00000000E+00  0.00000000E+00
