Sodilite                                
   1.00000000000000     
     9.1002157175359084   -0.0112999380133032   -0.0454814915701507
    -0.0113174775403664    9.1015821098056371    0.0118307004251370
    -0.0454720745165140    0.0118182362269027    9.0980298668612498
   O    Na   Al   Si   Cl   K 
    24     5     6     6     2     3
Direct
  0.1469161323844692  0.4430283429081598  0.1536860710846694
  0.8644270300260899  0.5517653407336722  0.1463817771354055
  0.8543251972952661  0.4424063518565791  0.8434825955581075
  0.1381939195026230  0.5424774778313408  0.8509022079441241
  0.1593648016778507  0.1441555006524433  0.4453322728320531
  0.1457119872004245  0.8612733520986415  0.5453057108784374
  0.8466503742117867  0.8512707835259382  0.4425176978801590
  0.8528785689414820  0.1336942320229977  0.5499775250476270
  0.4511916969231140  0.1423742834729083  0.1368411369613233
  0.5527671355637813  0.1519319049034581  0.8511973192473777
  0.4532990819390877  0.8503190362809122  0.8641042027635552
  0.5595466373322168  0.8398620705968687  0.1445915682188759
  0.9476754377791194  0.6394602452278751  0.6510361560276295
  0.0461386713748909  0.3549112325005849  0.6480950548698832
  0.9522255508123407  0.3565910018925069  0.3474618578183580
  0.0566672238154582  0.6382206523245476  0.3472315422941387
  0.6424174644192298  0.6459408167335279  0.9450175318588974
  0.3597253917580971  0.6486072079436804  0.0518608567486220
  0.3597017462066865  0.3442732433026625  0.9522450958851660
  0.6430276689419606  0.3448986280494565  0.0479211404386599
  0.6658658698690139  0.9405974302431227  0.6526975619104322
  0.6396122007764613  0.0425061775948453  0.3711454543367071
  0.3386942959929254  0.9420188954707973  0.3434394922448471
  0.3611761462780492  0.0385150871109522  0.6283688524910692
  0.1863072961035736  0.1837191699415566  0.1854826729227199
  0.8122922949569308  0.8101807142660082  0.1892554236173258
  0.8128494530386129  0.1834242219121412  0.8151087412637846
  0.6946315649193742  0.6894595752892142  0.6940400478730957
  0.3073068026117998  0.6906786893867094  0.3051030936655593
  0.2517528523732858  0.4949111882838382  0.0005271636975262
  0.7521124381985729  0.4950894656797227 -0.0024492349597515
  0.0022440749822691  0.2442622759789632  0.4964995484100354
 -0.0003450736533739  0.7453978265921987  0.4968379086236370
  0.4997195397317113 -0.0091863102445262  0.2483803936312797
  0.5068303979476613 -0.0064122457406665  0.7478950976014462
  0.2517901292342061 -0.0049329743580349  0.4914158644908754
  0.7515539384715484 -0.0088111844622545  0.5025320227412237
  0.5024118266429960  0.2445295539021357 -0.0027518406861878
  0.5037883110019515  0.7453710059459389  0.0009731783696185
  0.0042402198830378  0.4964359222928943  0.2482272674042391
 -0.0024038446614658  0.4945506412625846  0.7481867323202507
 -0.0351232060812265  0.0299003659540198  0.0354848780639278
  0.5014960710674241  0.5760630237502260  0.4986932623512513
  0.1576333230416306  0.8413325629792200  0.8414408181338856
  0.3400894677465569  0.3369971940820615  0.6584021676255662
  0.6606218914204980  0.3359400220275680  0.3398741103625653
 
  0.00000000E+00  0.00000000E+00  0.00000000E+00
  0.00000000E+00  0.00000000E+00  0.00000000E+00
  0.00000000E+00  0.00000000E+00  0.00000000E+00
  0.00000000E+00  0.00000000E+00  0.00000000E+00
  0.00000000E+00  0.00000000E+00  0.00000000E+00
  0.00000000E+00  0.00000000E+00  0.00000000E+00
  0.00000000E+00  0.00000000E+00  0.00000000E+00
  0.00000000E+00  0.00000000E+00  0.00000000E+00
  0.00000000E+00  0.00000000E+00  0.00000000E+00
  0.00000000E+00  0.00000000E+00  0.00000000E+00
  0.00000000E+00  0.00000000E+00  0.00000000E+00
  0.00000000E+00  0.00000000E+00  0.00000000E+00
  0.00000000E+00  0.00000000E+00  0.00000000E+00
  0.00000000E+00  0.00000000E+00  0.00000000E+00
  0.00000000E+00  0.00000000E+00  0.00000000E+00
  0.00000000E+00  0.00000000E+00  0.00000000E+00
  0.00000000E+00  0.00000000E+00  0.00000000E+00
  0.00000000E+00  0.00000000E+00  0.00000000E+00
  0.00000000E+00  0.00000000E+00  0.00000000E+00
  0.00000000E+00  0.00000000E+00  0.00000000E+00
  0.00000000E+00  0.00000000E+00  0.00000000E+00
  0.00000000E+00  0.00000000E+00  0.00000000E+00
  0.00000000E+00  0.00000000E+00  0.00000000E+00
  0.00000000E+00  0.00000000E+00  0.00000000E+00
  0.00000000E+00  0.00000000E+00  0.00000000E+00
  0.00000000E+00  0.00000000E+00  0.00000000E+00
  0.00000000E+00  0.00000000E+00  0.00000000E+00
  0.00000000E+00  0.00000000E+00  0.00000000E+00
  0.00000000E+00  0.00000000E+00  0.00000000E+00
  0.00000000E+00  0.00000000E+00  0.00000000E+00
  0.00000000E+00  0.00000000E+00  0.00000000E+00
  0.00000000E+00  0.00000000E+00  0.00000000E+00
  0.00000000E+00  0.00000000E+00  0.00000000E+00
  0.00000000E+00  0.00000000E+00  0.00000000E+00
  0.00000000E+00  0.00000000E+00  0.00000000E+00
  0.00000000E+00  0.00000000E+00  0.00000000E+00
  0.00000000E+00  0.00000000E+00  0.00000000E+00
  0.00000000E+00  0.00000000E+00  0.00000000E+00
  0.00000000E+00  0.00000000E+00  0.00000000E+00
  0.00000000E+00  0.00000000E+00  0.00000000E+00
  0.00000000E+00  0.00000000E+00  0.00000000E+00
  0.00000000E+00  0.00000000E+00  0.00000000E+00
  0.00000000E+00  0.00000000E+00  0.00000000E+00
  0.00000000E+00  0.00000000E+00  0.00000000E+00
  0.00000000E+00  0.00000000E+00  0.00000000E+00
  0.00000000E+00  0.00000000E+00  0.00000000E+00
