Sodilite                                
   1.00000000000000     
     9.1502614008207743    0.0243969316407499    0.0243969316407499
     0.0244132703589181    9.1603201358914141   -0.0063801839805184
     0.0244132703589181   -0.0063801839805184    9.1603201358914141
   O    Na   Al   Si   Cl   K 
    24     4     6     6     2     4
Direct
  0.1292735842487836  0.4598912405523649  0.1426159268649927
  0.8475687271606694  0.5561381591848041  0.1662378585719463
  0.8676283640695348  0.4664125497306189  0.8619496429757616
  0.1552059193715410  0.5505165733917865  0.8401896667650598
  0.1550899865727321  0.1457831311059812  0.4604324087392931
  0.1498442984533661  0.8608375640170164  0.5516821942456827
  0.8455540095659416  0.8575748782861436  0.4500927857450984
  0.8513418508306972  0.1427043457672429  0.5410610300850811
  0.4571535735820704  0.1530073471731627  0.1452916905776768
  0.5395503557971811  0.1562953194684606  0.8597889949202054
  0.4523257888619851  0.8484919004493036  0.8602453316180917
  0.5523811160643655  0.8520208506579160  0.1432963997433453
  0.9571535735820705  0.6452916905776765  0.6530073471731631
  0.0395503557971813  0.3597889949202054  0.6562953194684600
  0.9523257888619840  0.3602453316180915  0.3484919004493036
  0.0523811160643654  0.6432963997433452  0.3520208506579167
  0.6292735842487837  0.6426159268649931  0.9598912405523643
  0.3475687271606690  0.6662378585719462  0.0561381591848041
  0.3676283640695347  0.3619496429757617  0.9664125497306191
  0.6552059193715408  0.3401896667650599  0.0505165733917865
  0.6550899865727323  0.9604324087392931  0.6457831311059811
  0.6498442984533667  0.0516821942456827  0.3608375640170167
  0.3455540095659412  0.9500927857450980  0.3575748782861433
  0.3513418508306968  0.0410610300850812  0.6427043457672427
  0.8024501004754138  0.8054283778153071  0.1969970856892355
  0.1924471567248867  0.8070028923307856  0.8080165517661285
  0.6924471567248868  0.3080165517661284  0.3070028923307858
  0.3024501004754135  0.6969970856892358  0.3054283778153069
  0.2501511725640679  0.5096696583128132  0.0031991555089563
  0.7501511725640682  0.5031991555089562  0.0096696583128132
  0.0008514059806384  0.2541179314458319  0.5014817848846220
 -0.0000018265233508  0.7531182849058963  0.5014360225058155
  0.4999981734766489  0.0014360225058159  0.2531182849058963
  0.5008514059806383  0.0014817848846222  0.7541179314458318
  0.2503927283492359  0.0001897283602259  0.5026335305461992
  0.7503927283492358  0.0026335305461996  0.5001897283602258
  0.5042732879674428  0.2538415536203190  0.0062383314854141
  0.4961396252617085  0.7527252943856508  0.0057469188146180
 -0.0038603747382913  0.5057469188146181  0.2527252943856509
  0.0042732879674427  0.5062383314854140  0.7538415536203179
 -0.0015506984446106 -0.0715460178207644  0.0041635761216781
  0.4984493015553893  0.5041635761216783  0.4284539821792354
  0.1640504660126709  0.1658658827756397  0.1648179552298352
  0.8378790070530293  0.1655172193769875  0.8367804913017673
  0.6640504660126711  0.6648179552298354  0.6658658827756395
  0.3378790070530295  0.3367804913017674  0.6655172193769876
 
  0.00000000E+00  0.00000000E+00  0.00000000E+00
  0.00000000E+00  0.00000000E+00  0.00000000E+00
  0.00000000E+00  0.00000000E+00  0.00000000E+00
  0.00000000E+00  0.00000000E+00  0.00000000E+00
  0.00000000E+00  0.00000000E+00  0.00000000E+00
  0.00000000E+00  0.00000000E+00  0.00000000E+00
  0.00000000E+00  0.00000000E+00  0.00000000E+00
  0.00000000E+00  0.00000000E+00  0.00000000E+00
  0.00000000E+00  0.00000000E+00  0.00000000E+00
  0.00000000E+00  0.00000000E+00  0.00000000E+00
  0.00000000E+00  0.00000000E+00  0.00000000E+00
  0.00000000E+00  0.00000000E+00  0.00000000E+00
  0.00000000E+00  0.00000000E+00  0.00000000E+00
  0.00000000E+00  0.00000000E+00  0.00000000E+00
  0.00000000E+00  0.00000000E+00  0.00000000E+00
  0.00000000E+00  0.00000000E+00  0.00000000E+00
  0.00000000E+00  0.00000000E+00  0.00000000E+00
  0.00000000E+00  0.00000000E+00  0.00000000E+00
  0.00000000E+00  0.00000000E+00  0.00000000E+00
  0.00000000E+00  0.00000000E+00  0.00000000E+00
  0.00000000E+00  0.00000000E+00  0.00000000E+00
  0.00000000E+00  0.00000000E+00  0.00000000E+00
  0.00000000E+00  0.00000000E+00  0.00000000E+00
  0.00000000E+00  0.00000000E+00  0.00000000E+00
  0.00000000E+00  0.00000000E+00  0.00000000E+00
  0.00000000E+00  0.00000000E+00  0.00000000E+00
  0.00000000E+00  0.00000000E+00  0.00000000E+00
  0.00000000E+00  0.00000000E+00  0.00000000E+00
  0.00000000E+00  0.00000000E+00  0.00000000E+00
  0.00000000E+00  0.00000000E+00  0.00000000E+00
  0.00000000E+00  0.00000000E+00  0.00000000E+00
  0.00000000E+00  0.00000000E+00  0.00000000E+00
  0.00000000E+00  0.00000000E+00  0.00000000E+00
  0.00000000E+00  0.00000000E+00  0.00000000E+00
  0.00000000E+00  0.00000000E+00  0.00000000E+00
  0.00000000E+00  0.00000000E+00  0.00000000E+00
  0.00000000E+00  0.00000000E+00  0.00000000E+00
  0.00000000E+00  0.00000000E+00  0.00000000E+00
  0.00000000E+00  0.00000000E+00  0.00000000E+00
  0.00000000E+00  0.00000000E+00  0.00000000E+00
  0.00000000E+00  0.00000000E+00  0.00000000E+00
  0.00000000E+00  0.00000000E+00  0.00000000E+00
  0.00000000E+00  0.00000000E+00  0.00000000E+00
  0.00000000E+00  0.00000000E+00  0.00000000E+00
  0.00000000E+00  0.00000000E+00  0.00000000E+00
  0.00000000E+00  0.00000000E+00  0.00000000E+00
