Sodilite                                
   1.00000000000000     
     9.2276562455410680   -0.0326015902249046    0.0118386441706925
    -0.0326167072944585    9.2272142479679395    0.0133835878049928
     0.0118342746852632    0.0133769580573182    9.2264938740433209
   O    Na   Al   Si   Cl   K 
    24     3     6     6     2     5
Direct
  0.1379388439206137  0.4700903484340915  0.1412062892358874
  0.8493019217627127  0.5438387984905002  0.1556876350032756
  0.8658140267192771  0.4634540721123601  0.8509231298470443
  0.1506226864601687  0.5394526148211346  0.8357889735932325
  0.1585934514678598  0.1503939586857742  0.4625150874222863
  0.1494146565472714  0.8626658640377691  0.5323414282991095
  0.8432178958282895  0.8514691926374593  0.4519026448524327
  0.8528073464617556  0.1379470785765493  0.5318452220654205
  0.4682939486319245  0.1484909511890765  0.1326703544159162
  0.5382703097268281  0.1598874715124343  0.8453861946984501
  0.4648497283253237  0.8575616804344900  0.8619348833107295
  0.5452237606523724  0.8396755715961229  0.1470439005852769
  0.9568956264945870  0.6462916647146884  0.6506424812756929
  0.0398042684899248  0.3587857484329532  0.6479538184654966
  0.9646968998235455  0.3563244325456320  0.3401950496040140
  0.0382573985598970  0.6417158037547098  0.3467751051598561
  0.6528363971696332  0.6619603911024172  0.9496952893169442
  0.3678483377923543  0.6463612326243422  0.0317279260873448
  0.3480089273643465  0.3395664305245986  0.9556519036529925
  0.6354687553583113  0.3580694091427710  0.0306495884537723
  0.6574296658502830  0.9549429736898432  0.6420357630690444
  0.6499260140663325  0.0375855432340057  0.3571056814853567
  0.3474961774018381  0.9665896197784607  0.3513123170064783
  0.3495628469792609  0.0407069982787723  0.6396907161748194
  0.7973813565950586  0.7961786279754683  0.2021933917573130
  0.6989935429658649  0.6975044119040816  0.6973439768336984
  0.3088657464682571  0.3086514161361705  0.6933606161329839
  0.2521600543589580  0.5006013290808130 -0.0088307310936627
  0.7511412246895411  0.5059975807025161 -0.0045049380109434
  0.0022293083506068  0.2517594390238635  0.4947547691918505
 -0.0013485531631962  0.7513632995390992  0.4954105238510031
  0.5028391798901034 -0.0014383909234496  0.2444701386472836
  0.5035298939259608  0.0024517150193490  0.7449365872602479
  0.2516645783042921  0.0041609857414499  0.4957081650544986
  0.7512164543304971 -0.0034621089050014  0.4953391397275869
  0.4987535135763099  0.2519509105845745 -0.0090374468475405
  0.5072646817499429  0.7513858993241823 -0.0035041602175260
 -0.0019621227453865  0.5031678256553720  0.2448515389092147
  0.0028871731926402  0.5025987830257898  0.7453668244488442
 -0.0368070701064577 -0.0368848286371822  0.0332576273295917
  0.5037252714566510  0.5035612555891664  0.5641845379329089
  0.1719605097634496  0.1732609760795179  0.1693112214360477
  0.8285522037257402  0.1737501586380953  0.8251255029483979
  0.1749297009767767  0.8293388606003287  0.8257086184231047
  0.6675135093836314  0.3313428973925294  0.3305432687183599
  0.3319299504560476  0.6689311061023092  0.3313294444858634
 
  0.00000000E+00  0.00000000E+00  0.00000000E+00
  0.00000000E+00  0.00000000E+00  0.00000000E+00
  0.00000000E+00  0.00000000E+00  0.00000000E+00
  0.00000000E+00  0.00000000E+00  0.00000000E+00
  0.00000000E+00  0.00000000E+00  0.00000000E+00
  0.00000000E+00  0.00000000E+00  0.00000000E+00
  0.00000000E+00  0.00000000E+00  0.00000000E+00
  0.00000000E+00  0.00000000E+00  0.00000000E+00
  0.00000000E+00  0.00000000E+00  0.00000000E+00
  0.00000000E+00  0.00000000E+00  0.00000000E+00
  0.00000000E+00  0.00000000E+00  0.00000000E+00
  0.00000000E+00  0.00000000E+00  0.00000000E+00
  0.00000000E+00  0.00000000E+00  0.00000000E+00
  0.00000000E+00  0.00000000E+00  0.00000000E+00
  0.00000000E+00  0.00000000E+00  0.00000000E+00
  0.00000000E+00  0.00000000E+00  0.00000000E+00
  0.00000000E+00  0.00000000E+00  0.00000000E+00
  0.00000000E+00  0.00000000E+00  0.00000000E+00
  0.00000000E+00  0.00000000E+00  0.00000000E+00
  0.00000000E+00  0.00000000E+00  0.00000000E+00
  0.00000000E+00  0.00000000E+00  0.00000000E+00
  0.00000000E+00  0.00000000E+00  0.00000000E+00
  0.00000000E+00  0.00000000E+00  0.00000000E+00
  0.00000000E+00  0.00000000E+00  0.00000000E+00
  0.00000000E+00  0.00000000E+00  0.00000000E+00
  0.00000000E+00  0.00000000E+00  0.00000000E+00
  0.00000000E+00  0.00000000E+00  0.00000000E+00
  0.00000000E+00  0.00000000E+00  0.00000000E+00
  0.00000000E+00  0.00000000E+00  0.00000000E+00
  0.00000000E+00  0.00000000E+00  0.00000000E+00
  0.00000000E+00  0.00000000E+00  0.00000000E+00
  0.00000000E+00  0.00000000E+00  0.00000000E+00
  0.00000000E+00  0.00000000E+00  0.00000000E+00
  0.00000000E+00  0.00000000E+00  0.00000000E+00
  0.00000000E+00  0.00000000E+00  0.00000000E+00
  0.00000000E+00  0.00000000E+00  0.00000000E+00
  0.00000000E+00  0.00000000E+00  0.00000000E+00
  0.00000000E+00  0.00000000E+00  0.00000000E+00
  0.00000000E+00  0.00000000E+00  0.00000000E+00
  0.00000000E+00  0.00000000E+00  0.00000000E+00
  0.00000000E+00  0.00000000E+00  0.00000000E+00
  0.00000000E+00  0.00000000E+00  0.00000000E+00
  0.00000000E+00  0.00000000E+00  0.00000000E+00
  0.00000000E+00  0.00000000E+00  0.00000000E+00
  0.00000000E+00  0.00000000E+00  0.00000000E+00
  0.00000000E+00  0.00000000E+00  0.00000000E+00
