Sodilite                                
   1.00000000000000     
     9.0949911649736705    0.0160424093087727    0.0139867722339856
     0.0160396894816750    9.1082948368233385   -0.0150716351057981
     0.0139795702440617   -0.0150755539505736    9.0938241339636718
   O    Na   Al   Si   Cl   K 
    24     5     6     6     2     3
Direct
  0.1472661705308515  0.4450345026224474  0.1591568463899760
  0.8636041858709701  0.5440764455580652  0.1454139110393393
  0.8520421321977144  0.4456950802805991  0.8428196212446719
  0.1343924301976389  0.5532408406287510  0.8563856378118155
  0.1437917104473251  0.1365532845036330  0.4456057387773572
  0.1567163726859433  0.8549464986343591  0.5533730807707401
  0.8503872538875491  0.8643589430699830  0.4583643061301105
  0.8445758579231096  0.1476707816224008  0.5577514103094294
  0.4414606507490108  0.1573840264351049  0.1451982226861852
  0.5557535446879122  0.1476229903243785  0.8661610038120930
  0.4470537526586930  0.8459277362986367  0.8525816680568551
  0.5404657371905555  0.8553547363623824  0.1393000025457388
  0.9527630811925384  0.6417333795335564  0.6526278689560860
  0.0564673765575274  0.3599815619754091  0.6519148394587608
  0.9451001809273668  0.3582336708348366  0.3510396911662774
  0.0432215671823187  0.6426633495141685  0.3488885785088009
  0.6416051325056900  0.6537010188897809  0.9562603019097723
  0.3556980854380443  0.6516823650804817  0.0460871815043346
  0.3594029383119905  0.3505116198623601  0.9438801365876268
  0.6393408128798503  0.3497480981198226  0.0560838668854727
  0.6369944007110568  0.9589412456373252  0.6310137911701467
  0.6627808325896180  0.0557217935813396  0.3471975560097481
  0.3593021885991556  0.9574067947052128  0.3721910186294712
  0.3355484059172394  0.0586770070074194  0.6541514611374893
  0.1882347816014014  0.1895879680529882  0.1897926548528877
  0.8112698802207420  0.1900989914582295  0.8110832091563189
  0.1865923725820768  0.8169794853864121  0.8143307127674417
  0.3030725226838363  0.3058430562728645  0.6972901218296466
  0.6933562329890024  0.3081832096788666  0.3076853045059693
  0.2482469714490981  0.4988300516297483  0.0020700499657145
  0.7483405997380081  0.4986136261380470 -0.0008117642280731
 -0.0018656355404789  0.2510458503302579  0.5027999728751741
  0.0005034745150280  0.7522419373177698  0.5029451916923758
  0.5004273164927373  0.0074038206826250  0.2518339032798921
  0.4939158915698753  0.0046528924600487  0.7516807099673655
  0.2486292374669446  0.0031220238324807  0.5062271582598638
  0.7483437079458454  0.0072167046197132  0.4992114717713724
  0.4982530522691698  0.2514122223128161  0.0025716195369231
  0.4963116365974328  0.7522619635650825 -0.0010395524948394
  0.0000145878790573  0.4977723558575681  0.2514518487384120
 -0.0013820143622226  0.4996448590577116  0.7513654189146179
  0.0335906784251428  0.0396439309626918 -0.0333976646597082
  0.4975231292201641  0.4209381943161504  0.5026804658893385
  0.8424467896153164  0.8432841773406515  0.1565623645178666
  0.6588074179846721  0.6627570266471035  0.6597016594257391
  0.3396325668174799  0.6615978809977213  0.3405174019374030
 
  0.00000000E+00  0.00000000E+00  0.00000000E+00
  0.00000000E+00  0.00000000E+00  0.00000000E+00
  0.00000000E+00  0.00000000E+00  0.00000000E+00
  0.00000000E+00  0.00000000E+00  0.00000000E+00
  0.00000000E+00  0.00000000E+00  0.00000000E+00
  0.00000000E+00  0.00000000E+00  0.00000000E+00
  0.00000000E+00  0.00000000E+00  0.00000000E+00
  0.00000000E+00  0.00000000E+00  0.00000000E+00
  0.00000000E+00  0.00000000E+00  0.00000000E+00
  0.00000000E+00  0.00000000E+00  0.00000000E+00
  0.00000000E+00  0.00000000E+00  0.00000000E+00
  0.00000000E+00  0.00000000E+00  0.00000000E+00
  0.00000000E+00  0.00000000E+00  0.00000000E+00
  0.00000000E+00  0.00000000E+00  0.00000000E+00
  0.00000000E+00  0.00000000E+00  0.00000000E+00
  0.00000000E+00  0.00000000E+00  0.00000000E+00
  0.00000000E+00  0.00000000E+00  0.00000000E+00
  0.00000000E+00  0.00000000E+00  0.00000000E+00
  0.00000000E+00  0.00000000E+00  0.00000000E+00
  0.00000000E+00  0.00000000E+00  0.00000000E+00
  0.00000000E+00  0.00000000E+00  0.00000000E+00
  0.00000000E+00  0.00000000E+00  0.00000000E+00
  0.00000000E+00  0.00000000E+00  0.00000000E+00
  0.00000000E+00  0.00000000E+00  0.00000000E+00
  0.00000000E+00  0.00000000E+00  0.00000000E+00
  0.00000000E+00  0.00000000E+00  0.00000000E+00
  0.00000000E+00  0.00000000E+00  0.00000000E+00
  0.00000000E+00  0.00000000E+00  0.00000000E+00
  0.00000000E+00  0.00000000E+00  0.00000000E+00
  0.00000000E+00  0.00000000E+00  0.00000000E+00
  0.00000000E+00  0.00000000E+00  0.00000000E+00
  0.00000000E+00  0.00000000E+00  0.00000000E+00
  0.00000000E+00  0.00000000E+00  0.00000000E+00
  0.00000000E+00  0.00000000E+00  0.00000000E+00
  0.00000000E+00  0.00000000E+00  0.00000000E+00
  0.00000000E+00  0.00000000E+00  0.00000000E+00
  0.00000000E+00  0.00000000E+00  0.00000000E+00
  0.00000000E+00  0.00000000E+00  0.00000000E+00
  0.00000000E+00  0.00000000E+00  0.00000000E+00
  0.00000000E+00  0.00000000E+00  0.00000000E+00
  0.00000000E+00  0.00000000E+00  0.00000000E+00
  0.00000000E+00  0.00000000E+00  0.00000000E+00
  0.00000000E+00  0.00000000E+00  0.00000000E+00
  0.00000000E+00  0.00000000E+00  0.00000000E+00
  0.00000000E+00  0.00000000E+00  0.00000000E+00
  0.00000000E+00  0.00000000E+00  0.00000000E+00
