Sodilite                                
   1.00000000000000     
     9.0380062885997567   -0.0305034005973438   -0.0004061401817575
    -0.0305034005973437    9.0380062885997567   -0.0004061401817575
    -0.0004041851010178   -0.0004041851010178    9.0339299596894467
   O    Na   Al   Si   Cl   K 
    24     6     6     6     2     2
Direct
  0.1452677952832167  0.4422169128641203  0.1536459273189505
  0.8639223950725614  0.5570588376524224  0.1420301119591081
  0.8549782323176895  0.4378981435477470  0.8427898534615683
  0.1353727661564064  0.5499254165329456  0.8513965749608307
  0.1545747429515431  0.1474708263144349  0.4389661603836729
  0.1461409287802554  0.8642755477821140  0.5459099397321893
  0.8436923617694386  0.8550292556095590  0.4381664375263514
  0.8554879099166446  0.1336143297568684  0.5583465423761820
  0.4415961803287202  0.1460065304512894  0.1330836565799476
  0.5615143907066263  0.1548890424883779  0.8543653950504876
  0.4514612792822091  0.8556240229962860  0.8615145488010749
  0.5584603518765510  0.8439075482957316  0.1444259814888650
  0.9422169128641203  0.6452677952832163  0.6536459273189501
  0.0570588376524217  0.3639223950725612  0.6420301119591081
  0.9378981435477470  0.3549782323176898  0.3427898534615682
  0.0499254165329456  0.6353727661564059  0.3513965749608308
  0.6474708263144345  0.6545747429515433  0.9389661603836731
  0.3642755477821143  0.6461409287802556  0.0459099397321896
  0.3550292556095592  0.3436923617694383  0.9381664375263511
  0.6336143297568689  0.3554879099166446  0.0583465423761820
  0.6460065304512896  0.9415961803287199  0.6330836565799475
  0.6548890424883780  0.0615143907066258  0.3543653950504876
  0.3556240229962857  0.9514612792822095  0.3615145488010740
  0.3439075482957313  0.0584603518765505  0.6444259814888653
  0.1837545859856302  0.1855783621138932  0.1834559992622936
  0.8149184947486425  0.8149986627060410  0.1826424071637494
  0.8126821381934132  0.1867899200416186  0.8111557855449837
  0.6855783621138931  0.6837545859856301  0.6834559992622933
  0.3149986627060412  0.3149184947486423  0.6826424071637494
  0.6867899200416184  0.3126821381934131  0.3111557855449835
  0.2500479999547537  0.4961838906465197 -0.0028241992003535
  0.7499395386431343  0.4992191576235023 -0.0052365636935008
 -0.0007808423764978  0.2499395386431340  0.4947634363064992
 -0.0038161093534803  0.7500479999547534  0.4971758007996465
  0.5035737815736047  0.0009626683477155  0.2466066695547141
  0.5009626683477159  0.0035737815736045  0.7466066695547143
  0.2500099760474210  0.0049566299119543  0.4972568516049559
  0.7500402587572500 -0.0009421709795643  0.4954424451103734
  0.4990578290204358  0.2500402587572502 -0.0045575548896266
  0.5049566299119542  0.7500099760474217 -0.0027431483950443
 -0.0009974869228024  0.4970078646866177  0.2467929833333510
 -0.0029921353133823  0.4990025130771976  0.7467929833333508
 -0.0397195183025502  0.0394513628293660  0.0344215658221419
  0.5394513628293665  0.4602804816974500  0.5344215658221421
  0.1538628033665214  0.8472953312935607  0.8456449258580633
  0.3472953312935604  0.6538628033665214  0.3456449258580634
 
  0.00000000E+00  0.00000000E+00  0.00000000E+00
  0.00000000E+00  0.00000000E+00  0.00000000E+00
  0.00000000E+00  0.00000000E+00  0.00000000E+00
  0.00000000E+00  0.00000000E+00  0.00000000E+00
  0.00000000E+00  0.00000000E+00  0.00000000E+00
  0.00000000E+00  0.00000000E+00  0.00000000E+00
  0.00000000E+00  0.00000000E+00  0.00000000E+00
  0.00000000E+00  0.00000000E+00  0.00000000E+00
  0.00000000E+00  0.00000000E+00  0.00000000E+00
  0.00000000E+00  0.00000000E+00  0.00000000E+00
  0.00000000E+00  0.00000000E+00  0.00000000E+00
  0.00000000E+00  0.00000000E+00  0.00000000E+00
  0.00000000E+00  0.00000000E+00  0.00000000E+00
  0.00000000E+00  0.00000000E+00  0.00000000E+00
  0.00000000E+00  0.00000000E+00  0.00000000E+00
  0.00000000E+00  0.00000000E+00  0.00000000E+00
  0.00000000E+00  0.00000000E+00  0.00000000E+00
  0.00000000E+00  0.00000000E+00  0.00000000E+00
  0.00000000E+00  0.00000000E+00  0.00000000E+00
  0.00000000E+00  0.00000000E+00  0.00000000E+00
  0.00000000E+00  0.00000000E+00  0.00000000E+00
  0.00000000E+00  0.00000000E+00  0.00000000E+00
  0.00000000E+00  0.00000000E+00  0.00000000E+00
  0.00000000E+00  0.00000000E+00  0.00000000E+00
  0.00000000E+00  0.00000000E+00  0.00000000E+00
  0.00000000E+00  0.00000000E+00  0.00000000E+00
  0.00000000E+00  0.00000000E+00  0.00000000E+00
  0.00000000E+00  0.00000000E+00  0.00000000E+00
  0.00000000E+00  0.00000000E+00  0.00000000E+00
  0.00000000E+00  0.00000000E+00  0.00000000E+00
  0.00000000E+00  0.00000000E+00  0.00000000E+00
  0.00000000E+00  0.00000000E+00  0.00000000E+00
  0.00000000E+00  0.00000000E+00  0.00000000E+00
  0.00000000E+00  0.00000000E+00  0.00000000E+00
  0.00000000E+00  0.00000000E+00  0.00000000E+00
  0.00000000E+00  0.00000000E+00  0.00000000E+00
  0.00000000E+00  0.00000000E+00  0.00000000E+00
  0.00000000E+00  0.00000000E+00  0.00000000E+00
  0.00000000E+00  0.00000000E+00  0.00000000E+00
  0.00000000E+00  0.00000000E+00  0.00000000E+00
  0.00000000E+00  0.00000000E+00  0.00000000E+00
  0.00000000E+00  0.00000000E+00  0.00000000E+00
  0.00000000E+00  0.00000000E+00  0.00000000E+00
  0.00000000E+00  0.00000000E+00  0.00000000E+00
  0.00000000E+00  0.00000000E+00  0.00000000E+00
  0.00000000E+00  0.00000000E+00  0.00000000E+00
