Sodilite                                
   1.00000000000000     
     9.0537205067978359    0.0000000000000000    0.0000000000000000
     0.0000000000000000    9.0447688759392815   -0.0317091260734530
     0.0000000000000000   -0.0317179267354912    9.0476924620988086
   O    Na   Al   Si   Cl   K 
    24     6     6     6     2     2
Direct
  0.1391485668900213  0.4446783930099071  0.1525939745109331
  0.8580856077999047  0.5589407921739988  0.1488839181093491
  0.8580856077999047  0.4410592078260009  0.8511160818906504
  0.1391485668900213  0.5553216069900920  0.8474060254890665
  0.1477671531807580  0.1423519301712115  0.4456744848031289
  0.1477671531807580  0.8576480698287886  0.5543255151968713
  0.8469715845369776  0.8609899396687505  0.4397057786492011
  0.8469715845369776  0.1390100603312494  0.5602942213507995
  0.4412953273603992  0.1497565233894560  0.1404895575438871
  0.5561680659002370  0.1517083687352128  0.8589995997759203
  0.4412953273603992  0.8502434766105443  0.8595104424561125
  0.5561680659002370  0.8482916312647872  0.1410004002240795
  0.9384511606277606  0.6536446749658930  0.6633940735494639
  0.0447192338750618  0.3716563231006607  0.6383182914196394
  0.9384511606277606  0.3463553250341067  0.3366059264505369
  0.0447192338750618  0.6283436768993395  0.3616817085803605
  0.6389576243307122  0.6504525260560905  0.9414842986352929
  0.3573841742026806  0.6505831760086607  0.0504320284838464
  0.3573841742026806  0.3494168239913391  0.9495679715161538
  0.6389576243307122  0.3495474739439102  0.0585157013647069
  0.6476270573185798  0.9417674645263572  0.6397832656181743
  0.6476270573185798  0.0582325354736425  0.3602167343818259
  0.3463894724687864  0.9493339336685107  0.3583056485594587
  0.3463894724687864  0.0506660663314893  0.6416943514405419
  0.1772353743474611  0.1796229878332234  0.1809484034232503
  0.8163804229080062  0.8169392544220648  0.1819687549555462
  0.8163804229080062  0.1830607455779358  0.8180312450444537
  0.1772353743474611  0.8203770121667767  0.8190515965767493
  0.6899101819295033  0.6944306653120125  0.6941254807705984
  0.6899101819295033  0.3055693346879876  0.3058745192294011
  0.2459209976306379  0.5000000000000000 -0.0000000000000000
  0.7473526389874973  0.5000000000000000 -0.0000000000000000
 -0.0070892197152730  0.2499159474316960  0.4964372826128750
 -0.0070892197152730  0.7500840525683038  0.5035627173871252
  0.4977771455715557  0.0001566051821897  0.2496721019811018
  0.4977771455715557 -0.0001566051821897  0.7503278980188990
  0.2460220386947813  0.0000000000000000  0.5000000000000000
  0.7469594567615296  0.0000000000000000  0.5000000000000000
  0.4981518973897408  0.2498681622663749  0.0012726289573092
  0.4981518973897408  0.7501318377336250 -0.0012726289573092
 -0.0060346161311093  0.4954406870789389  0.2499892870968736
 -0.0060346161311093  0.5045593129210612  0.7500107129031265
 -0.0055041785581070  0.0000000000000000 -0.0000000000000000
  0.5819960727432624  0.5000000000000000  0.5000000000000000
  0.3393302720784336  0.3436582249715701  0.6568328899734539
  0.3393302720784336  0.6563417750284299  0.3431671100265457
 
  0.00000000E+00  0.00000000E+00  0.00000000E+00
  0.00000000E+00  0.00000000E+00  0.00000000E+00
  0.00000000E+00  0.00000000E+00  0.00000000E+00
  0.00000000E+00  0.00000000E+00  0.00000000E+00
  0.00000000E+00  0.00000000E+00  0.00000000E+00
  0.00000000E+00  0.00000000E+00  0.00000000E+00
  0.00000000E+00  0.00000000E+00  0.00000000E+00
  0.00000000E+00  0.00000000E+00  0.00000000E+00
  0.00000000E+00  0.00000000E+00  0.00000000E+00
  0.00000000E+00  0.00000000E+00  0.00000000E+00
  0.00000000E+00  0.00000000E+00  0.00000000E+00
  0.00000000E+00  0.00000000E+00  0.00000000E+00
  0.00000000E+00  0.00000000E+00  0.00000000E+00
  0.00000000E+00  0.00000000E+00  0.00000000E+00
  0.00000000E+00  0.00000000E+00  0.00000000E+00
  0.00000000E+00  0.00000000E+00  0.00000000E+00
  0.00000000E+00  0.00000000E+00  0.00000000E+00
  0.00000000E+00  0.00000000E+00  0.00000000E+00
  0.00000000E+00  0.00000000E+00  0.00000000E+00
  0.00000000E+00  0.00000000E+00  0.00000000E+00
  0.00000000E+00  0.00000000E+00  0.00000000E+00
  0.00000000E+00  0.00000000E+00  0.00000000E+00
  0.00000000E+00  0.00000000E+00  0.00000000E+00
  0.00000000E+00  0.00000000E+00  0.00000000E+00
  0.00000000E+00  0.00000000E+00  0.00000000E+00
  0.00000000E+00  0.00000000E+00  0.00000000E+00
  0.00000000E+00  0.00000000E+00  0.00000000E+00
  0.00000000E+00  0.00000000E+00  0.00000000E+00
  0.00000000E+00  0.00000000E+00  0.00000000E+00
  0.00000000E+00  0.00000000E+00  0.00000000E+00
  0.00000000E+00  0.00000000E+00  0.00000000E+00
  0.00000000E+00  0.00000000E+00  0.00000000E+00
  0.00000000E+00  0.00000000E+00  0.00000000E+00
  0.00000000E+00  0.00000000E+00  0.00000000E+00
  0.00000000E+00  0.00000000E+00  0.00000000E+00
  0.00000000E+00  0.00000000E+00  0.00000000E+00
  0.00000000E+00  0.00000000E+00  0.00000000E+00
  0.00000000E+00  0.00000000E+00  0.00000000E+00
  0.00000000E+00  0.00000000E+00  0.00000000E+00
  0.00000000E+00  0.00000000E+00  0.00000000E+00
  0.00000000E+00  0.00000000E+00  0.00000000E+00
  0.00000000E+00  0.00000000E+00  0.00000000E+00
  0.00000000E+00  0.00000000E+00  0.00000000E+00
  0.00000000E+00  0.00000000E+00  0.00000000E+00
  0.00000000E+00  0.00000000E+00  0.00000000E+00
  0.00000000E+00  0.00000000E+00  0.00000000E+00
