Sodilite                                
   1.00000000000000     
     9.1022710278766965    0.0113680255826157   -0.0118521404631222
     0.0113502587040226    9.1008829615429168   -0.0463133066273076
    -0.0118395149566026   -0.0463035922892938    9.0986136103222108
   O    Na   Al   Si   Cl   K 
    24     5     6     6     2     3
Direct
  0.1383636963803560  0.4433246718860916  0.1528578436259814
  0.8567024412573511  0.5477310605534467  0.1524152827104165
  0.8548393326363463  0.4537820067243730  0.8517901128737182
  0.1393993477304999  0.5522771715225239  0.8490598628296061
  0.1485295770223949  0.1402179115395052  0.4482008812589128
  0.1460738229955459  0.8574855188132183  0.5549471108254149
  0.8450021861474913  0.8570706560783705  0.4521385598351010
  0.8441683570184514  0.1404221647164716  0.5478154137182392
  0.4420773808425317  0.1613950056283410  0.1566496926671323
  0.5385738419665845  0.1387727046337273  0.8716995496647095
  0.4406333879048840  0.8340626048949816  0.8471921620172046
  0.5424927142182966  0.8603910340706749  0.1288359596135087
  0.9423861010771239  0.6459016325520039  0.6567399465414475
  0.0423984861246228  0.3620376909425947  0.6488400091119206
  0.9430685030558694  0.3528812352021065  0.3460559947543528
  0.0516270143422239  0.6354105245156986  0.3538132636781083
  0.6337079367108361  0.6470862944284212  0.9500258433641851
  0.3513115582917156  0.6533660500768202  0.0573185905044948
  0.3612928223992969  0.3542723634132971  0.9547161737251094
  0.6441282713930238  0.3407053055416123  0.0546622385410181
  0.6519113245037010  0.9473386942596107  0.6487526004440889
  0.6423766227095453  0.0487214284736290  0.3631660553707071
  0.3398594130297350  0.9404882260157001  0.3554064169883540
  0.3503231511010462  0.0467294871083710  0.6359052435655227
  0.1907611758931525  0.1927058946982756  0.1950184917809105
  0.1895490021794879  0.8052148591306292  0.8059902962474661
  0.6834549361294276  0.6873061618924607  0.6849989076857539
  0.6837332230533335  0.3135709253384880  0.3143589517881664
  0.3100366226578051  0.6877212522814782  0.3107100461748808
  0.2453999121931962  0.5003365020573273  0.0031661260828368
  0.7442680956214498  0.4977558689972897  0.0034687769121539
 -0.0051679315487698  0.2482364604684856  0.4993637002300409
 -0.0049235273955683  0.7478983994434388  0.5025686882261637
  0.4907945828158129  0.0003386529764003  0.2516374647506511
  0.4935594554460283 -0.0068665779066954  0.7521175836354423
  0.2453882981752327 -0.0037684730976365  0.4990462956762095
  0.7445472607364988 -0.0023421621968923  0.5027633379552255
  0.4950970593680909  0.2482101696207010  0.0086089228094108
  0.4912363507036781  0.7484663992591888 -0.0026127651354658
 -0.0035505858180965  0.4956905823358216  0.2517469532729167
 -0.0054862487975694  0.5024504648662952  0.7518105035542323
  0.0760970321787939 -0.0015362830279691  0.0013574885210062
  0.5299130744061390  0.5351294815608064  0.4645130475459725
  0.8358719372318544  0.8393830030350706  0.1601680330076236
  0.8369515051010830  0.1597940847843893  0.8416721087237776
  0.3412214788094661  0.3424328898910533  0.6585222323253691
 
  0.00000000E+00  0.00000000E+00  0.00000000E+00
  0.00000000E+00  0.00000000E+00  0.00000000E+00
  0.00000000E+00  0.00000000E+00  0.00000000E+00
  0.00000000E+00  0.00000000E+00  0.00000000E+00
  0.00000000E+00  0.00000000E+00  0.00000000E+00
  0.00000000E+00  0.00000000E+00  0.00000000E+00
  0.00000000E+00  0.00000000E+00  0.00000000E+00
  0.00000000E+00  0.00000000E+00  0.00000000E+00
  0.00000000E+00  0.00000000E+00  0.00000000E+00
  0.00000000E+00  0.00000000E+00  0.00000000E+00
  0.00000000E+00  0.00000000E+00  0.00000000E+00
  0.00000000E+00  0.00000000E+00  0.00000000E+00
  0.00000000E+00  0.00000000E+00  0.00000000E+00
  0.00000000E+00  0.00000000E+00  0.00000000E+00
  0.00000000E+00  0.00000000E+00  0.00000000E+00
  0.00000000E+00  0.00000000E+00  0.00000000E+00
  0.00000000E+00  0.00000000E+00  0.00000000E+00
  0.00000000E+00  0.00000000E+00  0.00000000E+00
  0.00000000E+00  0.00000000E+00  0.00000000E+00
  0.00000000E+00  0.00000000E+00  0.00000000E+00
  0.00000000E+00  0.00000000E+00  0.00000000E+00
  0.00000000E+00  0.00000000E+00  0.00000000E+00
  0.00000000E+00  0.00000000E+00  0.00000000E+00
  0.00000000E+00  0.00000000E+00  0.00000000E+00
  0.00000000E+00  0.00000000E+00  0.00000000E+00
  0.00000000E+00  0.00000000E+00  0.00000000E+00
  0.00000000E+00  0.00000000E+00  0.00000000E+00
  0.00000000E+00  0.00000000E+00  0.00000000E+00
  0.00000000E+00  0.00000000E+00  0.00000000E+00
  0.00000000E+00  0.00000000E+00  0.00000000E+00
  0.00000000E+00  0.00000000E+00  0.00000000E+00
  0.00000000E+00  0.00000000E+00  0.00000000E+00
  0.00000000E+00  0.00000000E+00  0.00000000E+00
  0.00000000E+00  0.00000000E+00  0.00000000E+00
  0.00000000E+00  0.00000000E+00  0.00000000E+00
  0.00000000E+00  0.00000000E+00  0.00000000E+00
  0.00000000E+00  0.00000000E+00  0.00000000E+00
  0.00000000E+00  0.00000000E+00  0.00000000E+00
  0.00000000E+00  0.00000000E+00  0.00000000E+00
  0.00000000E+00  0.00000000E+00  0.00000000E+00
  0.00000000E+00  0.00000000E+00  0.00000000E+00
  0.00000000E+00  0.00000000E+00  0.00000000E+00
  0.00000000E+00  0.00000000E+00  0.00000000E+00
  0.00000000E+00  0.00000000E+00  0.00000000E+00
  0.00000000E+00  0.00000000E+00  0.00000000E+00
  0.00000000E+00  0.00000000E+00  0.00000000E+00
