Sodilite                                
   1.00000000000000     
     8.9810564275735256   -0.0154047596961397    0.0154047610212012
    -0.0154047610212012    8.9810564275735256   -0.0154047596961397
     0.0154047596961397   -0.0154047610212012    8.9810564275735256
   O    Na   Al   Si   Cl   K 
    24     7     6     6     2     1
Direct
  0.1331081556071513  0.4394064581841650  0.1430501300269244
  0.8547362255775367  0.5643772783231629  0.1534111208155556
  0.8642785234943825  0.4472843741007360  0.8540212325832166
  0.1443711455232700  0.5650401920839242  0.8438152976788812
  0.1534111208155556  0.1452637744224631  0.4356227216768375
  0.1430501300269244  0.8668918443928485  0.5605935418158345
  0.8438152976788812  0.8556288544767301  0.4349598079160760
  0.8540212325832166  0.1357214765056174  0.5527156258992638
  0.4349598079160760  0.1561847023211192  0.1443711455232700
  0.5527156258992638  0.1459787674167833  0.8642785234943825
  0.4356227216768375  0.8465888791844441  0.8547362255775367
  0.5605935418158345  0.8569498699730755  0.1331081556071513
  0.9374858964121598  0.6417492988874379  0.6475485409952878
  0.0595357938360350  0.3612580008595082  0.6489247455879728
  0.9363226792693683  0.3613272619357291  0.3479889675390124
  0.0633040020175692  0.6388392140332977  0.3499788330981703
  0.6386727380642712  0.6520110324609878  0.9363226792693683
  0.3611607859667021  0.6500211669018295  0.0633040020175692
  0.3582507011125617  0.3524514590047125  0.9374858964121598
  0.6387419991404921  0.3510752544120267  0.0595357938360350
  0.6489247455879728  0.9404642061639653  0.6387419991404921
  0.6475485409952878  0.0625141035878398  0.3582507011125617
  0.3499788330981703  0.9366959979824312  0.3611607859667021
  0.3479889675390124  0.0636773207306312  0.6386727380642712
  0.1823861920533393  0.1852010030732243  0.1829513618743187
  0.8147989969267757  0.8170486381256818  0.1823861920533393
  0.1829513618743187  0.8176138079466611  0.8147989969267757
  0.6775524188938740  0.6793038110433636  0.6763964717703426
  0.3206961889566368  0.3236035282296572  0.6775524188938740
  0.6763964717703426  0.3224475811061266  0.3206961889566368
  0.3192232345333829  0.6807767654666176  0.3192232345333829
  0.2484641862052780  0.5033133939764325 -0.0025354861568770
  0.7480382133518904  0.5034985502375785  0.0003018885615086
  0.0003018885615086  0.2519617866481096  0.4965014497624217
 -0.0025354861568770  0.7515358137947217  0.4966866060235678
  0.4966866060235678  0.0025354861568770  0.2484641862052780
  0.4965014497624217 -0.0003018885615086  0.7480382133518904
  0.2483464654821129  0.0029108935932971  0.4980531914524190
  0.7481256191700764 -0.0009251782986727  0.4960977983187152
  0.4960977983187152  0.2518743808299239  0.0009251782986727
  0.4980531914524190  0.7516535345178865 -0.0029108935932971
 -0.0029108935932971  0.5019468085475811  0.2483464654821129
  0.0009251782986727  0.5039022016812851  0.7481256191700764
  0.0401435216640764 -0.0401435216640764  0.0401435216640764
  0.4978582593802737  0.5021417406197256  0.4978582593802737
  0.8492999254159581  0.1507000745840420  0.8492999254159581
 
  0.00000000E+00  0.00000000E+00  0.00000000E+00
  0.00000000E+00  0.00000000E+00  0.00000000E+00
  0.00000000E+00  0.00000000E+00  0.00000000E+00
  0.00000000E+00  0.00000000E+00  0.00000000E+00
  0.00000000E+00  0.00000000E+00  0.00000000E+00
  0.00000000E+00  0.00000000E+00  0.00000000E+00
  0.00000000E+00  0.00000000E+00  0.00000000E+00
  0.00000000E+00  0.00000000E+00  0.00000000E+00
  0.00000000E+00  0.00000000E+00  0.00000000E+00
  0.00000000E+00  0.00000000E+00  0.00000000E+00
  0.00000000E+00  0.00000000E+00  0.00000000E+00
  0.00000000E+00  0.00000000E+00  0.00000000E+00
  0.00000000E+00  0.00000000E+00  0.00000000E+00
  0.00000000E+00  0.00000000E+00  0.00000000E+00
  0.00000000E+00  0.00000000E+00  0.00000000E+00
  0.00000000E+00  0.00000000E+00  0.00000000E+00
  0.00000000E+00  0.00000000E+00  0.00000000E+00
  0.00000000E+00  0.00000000E+00  0.00000000E+00
  0.00000000E+00  0.00000000E+00  0.00000000E+00
  0.00000000E+00  0.00000000E+00  0.00000000E+00
  0.00000000E+00  0.00000000E+00  0.00000000E+00
  0.00000000E+00  0.00000000E+00  0.00000000E+00
  0.00000000E+00  0.00000000E+00  0.00000000E+00
  0.00000000E+00  0.00000000E+00  0.00000000E+00
  0.00000000E+00  0.00000000E+00  0.00000000E+00
  0.00000000E+00  0.00000000E+00  0.00000000E+00
  0.00000000E+00  0.00000000E+00  0.00000000E+00
  0.00000000E+00  0.00000000E+00  0.00000000E+00
  0.00000000E+00  0.00000000E+00  0.00000000E+00
  0.00000000E+00  0.00000000E+00  0.00000000E+00
  0.00000000E+00  0.00000000E+00  0.00000000E+00
  0.00000000E+00  0.00000000E+00  0.00000000E+00
  0.00000000E+00  0.00000000E+00  0.00000000E+00
  0.00000000E+00  0.00000000E+00  0.00000000E+00
  0.00000000E+00  0.00000000E+00  0.00000000E+00
  0.00000000E+00  0.00000000E+00  0.00000000E+00
  0.00000000E+00  0.00000000E+00  0.00000000E+00
  0.00000000E+00  0.00000000E+00  0.00000000E+00
  0.00000000E+00  0.00000000E+00  0.00000000E+00
  0.00000000E+00  0.00000000E+00  0.00000000E+00
  0.00000000E+00  0.00000000E+00  0.00000000E+00
  0.00000000E+00  0.00000000E+00  0.00000000E+00
  0.00000000E+00  0.00000000E+00  0.00000000E+00
  0.00000000E+00  0.00000000E+00  0.00000000E+00
  0.00000000E+00  0.00000000E+00  0.00000000E+00
  0.00000000E+00  0.00000000E+00  0.00000000E+00
