Sodilite                                
   1.00000000000000     
     9.1822936112991655   -0.0258852670593278    0.0244265925023660
    -0.0258821619156490    9.1734329151225076    0.0032100966300430
     0.0244268239773235    0.0032128567402232    9.1744861321377833
   O    Na   Al   Si   Cl   K 
    24     4     6     6     2     4
Direct
  0.1348782586698364  0.4655379910082437  0.1432965377126733
  0.8486481867972927  0.5508100445654945  0.1561991914081408
  0.8645519156597957  0.4615202118018833  0.8529802164096569
  0.1495276999441636  0.5430688750358560  0.8372667556811517
  0.1583923688749644  0.1537572794582734  0.4582442083309904
  0.1460020937165135  0.8660469227381481  0.5347460043903841
  0.8396995220118588  0.8522874144252512  0.4476684379470531
  0.8557502934401008  0.1356303206595957  0.5386449126785650
  0.4612006298096990  0.1466722639742946  0.1317923156872190
  0.5427956215734918  0.1634494320336972  0.8467042839366745
  0.4625904065850994  0.8605093050212879  0.8636409044781932
  0.5484686687803233  0.8412005339720214  0.1489389476022515
  0.9521588520868486  0.6515039411956406  0.6553829623684460
  0.0415181577117350  0.3645362622830710  0.6446533794161303
  0.9502687778378730  0.3529485643994508  0.3374772655199968
  0.0402203502380902  0.6364380802673986  0.3536527537805247
  0.6450555570335824  0.6567509250949437  0.9465857543154460
  0.3612664544308249  0.6529284916556535  0.0370806024033313
  0.3531293008982516  0.3466145106893195  0.9543494807841344
  0.6395208680271668  0.3538566468649716  0.0452526366524263
  0.6506137663407148  0.9537349347917320  0.6367790356102139
  0.6540497161348281  0.0526261608095638  0.3536130721468794
  0.3519431857400026  0.9639237229807540  0.3580005144140752
  0.3440761327923594  0.0466001284289903  0.6452119634930648
  0.7948119353768810  0.7953943205296475  0.2034881464898995
  0.6937688439679385  0.6904442028020702  0.6910238451755985
  0.3178885341307289  0.3128946187014675  0.6872455348315515
  0.6922556610802408  0.3086552854578713  0.3083260084702155
  0.2499928475800803  0.5033613508071278 -0.0059505591056014
  0.7492202355963575  0.5055924233942980 -0.0013754807733313
 -0.0000545572225835  0.2537150488466464  0.4942004802221843
 -0.0043649939544677  0.7531852662185128  0.4970835484962044
  0.5038880328344539  0.0013166472438512  0.2468410048104259
  0.5015661125585470  0.0060391750641940  0.7460839313288999
  0.2502403287587542  0.0071207071351876  0.4980108458738867
  0.7498432779819513 -0.0002636149678422  0.4939661826789856
  0.5000550651146459  0.2534777006506898 -0.0055631902989069
  0.5043408811742113  0.7532699349923093 -0.0014051329166790
 -0.0058215481994425  0.5022307264133747  0.2469872619473050
  0.0010983755415484  0.5055306370439309  0.7466461920773149
 -0.0410639681419782 -0.0375836275021210  0.0374006238298301
  0.5354262713396035  0.4714797648629525  0.5281985597455368
  0.1702243366829349  0.1715405913252775  0.1669042802388823
  0.8317663019884944  0.1726645276607065  0.8270537001109926
  0.1714213821021703  0.8340878348817339  0.8288515031567253
  0.3371698585735148  0.6628935142825768  0.3378205764424564
 
  0.00000000E+00  0.00000000E+00  0.00000000E+00
  0.00000000E+00  0.00000000E+00  0.00000000E+00
  0.00000000E+00  0.00000000E+00  0.00000000E+00
  0.00000000E+00  0.00000000E+00  0.00000000E+00
  0.00000000E+00  0.00000000E+00  0.00000000E+00
  0.00000000E+00  0.00000000E+00  0.00000000E+00
  0.00000000E+00  0.00000000E+00  0.00000000E+00
  0.00000000E+00  0.00000000E+00  0.00000000E+00
  0.00000000E+00  0.00000000E+00  0.00000000E+00
  0.00000000E+00  0.00000000E+00  0.00000000E+00
  0.00000000E+00  0.00000000E+00  0.00000000E+00
  0.00000000E+00  0.00000000E+00  0.00000000E+00
  0.00000000E+00  0.00000000E+00  0.00000000E+00
  0.00000000E+00  0.00000000E+00  0.00000000E+00
  0.00000000E+00  0.00000000E+00  0.00000000E+00
  0.00000000E+00  0.00000000E+00  0.00000000E+00
  0.00000000E+00  0.00000000E+00  0.00000000E+00
  0.00000000E+00  0.00000000E+00  0.00000000E+00
  0.00000000E+00  0.00000000E+00  0.00000000E+00
  0.00000000E+00  0.00000000E+00  0.00000000E+00
  0.00000000E+00  0.00000000E+00  0.00000000E+00
  0.00000000E+00  0.00000000E+00  0.00000000E+00
  0.00000000E+00  0.00000000E+00  0.00000000E+00
  0.00000000E+00  0.00000000E+00  0.00000000E+00
  0.00000000E+00  0.00000000E+00  0.00000000E+00
  0.00000000E+00  0.00000000E+00  0.00000000E+00
  0.00000000E+00  0.00000000E+00  0.00000000E+00
  0.00000000E+00  0.00000000E+00  0.00000000E+00
  0.00000000E+00  0.00000000E+00  0.00000000E+00
  0.00000000E+00  0.00000000E+00  0.00000000E+00
  0.00000000E+00  0.00000000E+00  0.00000000E+00
  0.00000000E+00  0.00000000E+00  0.00000000E+00
  0.00000000E+00  0.00000000E+00  0.00000000E+00
  0.00000000E+00  0.00000000E+00  0.00000000E+00
  0.00000000E+00  0.00000000E+00  0.00000000E+00
  0.00000000E+00  0.00000000E+00  0.00000000E+00
  0.00000000E+00  0.00000000E+00  0.00000000E+00
  0.00000000E+00  0.00000000E+00  0.00000000E+00
  0.00000000E+00  0.00000000E+00  0.00000000E+00
  0.00000000E+00  0.00000000E+00  0.00000000E+00
  0.00000000E+00  0.00000000E+00  0.00000000E+00
  0.00000000E+00  0.00000000E+00  0.00000000E+00
  0.00000000E+00  0.00000000E+00  0.00000000E+00
  0.00000000E+00  0.00000000E+00  0.00000000E+00
  0.00000000E+00  0.00000000E+00  0.00000000E+00
  0.00000000E+00  0.00000000E+00  0.00000000E+00
