Sodilite                                
   1.00000000000000     
     9.2273635262532334    0.0359975728303805   -0.0147121301579477
     0.0359821579266392    9.2278721080730985    0.0132617788662461
    -0.0147043711788082    0.0132548785542899    9.2270779826328297
   O    Na   Al   Si   Cl   K 
    24     3     6     6     2     5
Direct
  0.1416595720288625  0.4616564690745643  0.1531207338966779
  0.8562719912057160  0.5353817648961300  0.1597609698777001
  0.8587498462660674  0.4601756569754332  0.8519713499255386
  0.1462771059887760  0.5431842312703529  0.8493111928526995
  0.1463921228355479  0.1321923128681393  0.4681462258120356
  0.1619360752393178  0.8471896478733699  0.5503629923404485
  0.8580399447700159  0.8645302857405901  0.4692648684171020
  0.8395548690191182  0.1520103717111536  0.5443806253588304
  0.4664933484336559  0.1525387953870744  0.1487002257253293
  0.5406777393889993  0.1504528499786254  0.8602766924384438
  0.4549074224943216  0.8425738885982860  0.8578900177274568
  0.5377099413154973  0.8501606993410583  0.1428137841703132
  0.9634398611553335  0.6341497168317992  0.6489644067018029
  0.0395142837593839  0.3493728181551041  0.6641405752606162
  0.9700251179920102  0.3621074747055322  0.3587605992261593
  0.0438828087424021  0.6507033523216780  0.3442630801912566
  0.6377890164262551  0.6471319672166647  0.9681272522590449
  0.3513847669385102  0.6569107582505113  0.0481193552401618
  0.3627616967226190  0.3507193147923410  0.9676970755189688
  0.6504304524250042  0.3413518527267046  0.0375370203349890
  0.6598342835378979  0.9616731920548356  0.6545911102610081
  0.6484864444744930  0.0317393228636329  0.3673089764467339
  0.3395972453199055  0.9547376378661957  0.3528831976226792
  0.3576404138757896  0.0352222039387799  0.6379229174787460
  0.8088187452671053  0.1909631802236628  0.8067257490890957
  0.1973491924967084  0.8011530354819707  0.8028176217088667
  0.2963374093387028  0.7024426397590053  0.2979829276563550
  0.2513468591949344  0.5014488442291417  0.0045906180959930
  0.7517495893342794  0.4977189825729799  0.0052021431940973
  0.0005876494536193  0.2478370368739340  0.5088221300318747
  0.0060347939863383  0.7488606508505383  0.5044698556060727
  0.4985212917515739 -0.0028508910774071  0.2555358953241609
  0.5024551997874310 -0.0035292768110010  0.7550619234416278
  0.2513925619358338 -0.0073174927484029  0.5034657440070546
  0.7519211862051267  0.0012627399338554  0.5090822059080686
  0.5042145843863853  0.2483175492171850  0.0043082975211658
  0.4964390887457664  0.7488360379204866  0.0046827176982465
  0.0031821576640100  0.5020056322042282  0.2550976322297315
  0.0025966862886418  0.4970862962853890  0.7546020143667619
  0.0037428604217676 -0.0039156382800870 -0.0640937222979561
  0.4631528350643837  0.5367648329670984  0.4669658139904439
  0.1689023614310889  0.1680764355671848  0.1686816946933655
  0.8313846829388916  0.8324788176602240  0.1694828003470383
  0.6738572894579892  0.6714253216944535  0.6749818772464286
  0.3293632289255600  0.3250322675587567  0.6744472785206435
  0.6731933755683620  0.3280364124782459  0.3307715365361233
 
  0.00000000E+00  0.00000000E+00  0.00000000E+00
  0.00000000E+00  0.00000000E+00  0.00000000E+00
  0.00000000E+00  0.00000000E+00  0.00000000E+00
  0.00000000E+00  0.00000000E+00  0.00000000E+00
  0.00000000E+00  0.00000000E+00  0.00000000E+00
  0.00000000E+00  0.00000000E+00  0.00000000E+00
  0.00000000E+00  0.00000000E+00  0.00000000E+00
  0.00000000E+00  0.00000000E+00  0.00000000E+00
  0.00000000E+00  0.00000000E+00  0.00000000E+00
  0.00000000E+00  0.00000000E+00  0.00000000E+00
  0.00000000E+00  0.00000000E+00  0.00000000E+00
  0.00000000E+00  0.00000000E+00  0.00000000E+00
  0.00000000E+00  0.00000000E+00  0.00000000E+00
  0.00000000E+00  0.00000000E+00  0.00000000E+00
  0.00000000E+00  0.00000000E+00  0.00000000E+00
  0.00000000E+00  0.00000000E+00  0.00000000E+00
  0.00000000E+00  0.00000000E+00  0.00000000E+00
  0.00000000E+00  0.00000000E+00  0.00000000E+00
  0.00000000E+00  0.00000000E+00  0.00000000E+00
  0.00000000E+00  0.00000000E+00  0.00000000E+00
  0.00000000E+00  0.00000000E+00  0.00000000E+00
  0.00000000E+00  0.00000000E+00  0.00000000E+00
  0.00000000E+00  0.00000000E+00  0.00000000E+00
  0.00000000E+00  0.00000000E+00  0.00000000E+00
  0.00000000E+00  0.00000000E+00  0.00000000E+00
  0.00000000E+00  0.00000000E+00  0.00000000E+00
  0.00000000E+00  0.00000000E+00  0.00000000E+00
  0.00000000E+00  0.00000000E+00  0.00000000E+00
  0.00000000E+00  0.00000000E+00  0.00000000E+00
  0.00000000E+00  0.00000000E+00  0.00000000E+00
  0.00000000E+00  0.00000000E+00  0.00000000E+00
  0.00000000E+00  0.00000000E+00  0.00000000E+00
  0.00000000E+00  0.00000000E+00  0.00000000E+00
  0.00000000E+00  0.00000000E+00  0.00000000E+00
  0.00000000E+00  0.00000000E+00  0.00000000E+00
  0.00000000E+00  0.00000000E+00  0.00000000E+00
  0.00000000E+00  0.00000000E+00  0.00000000E+00
  0.00000000E+00  0.00000000E+00  0.00000000E+00
  0.00000000E+00  0.00000000E+00  0.00000000E+00
  0.00000000E+00  0.00000000E+00  0.00000000E+00
  0.00000000E+00  0.00000000E+00  0.00000000E+00
  0.00000000E+00  0.00000000E+00  0.00000000E+00
  0.00000000E+00  0.00000000E+00  0.00000000E+00
  0.00000000E+00  0.00000000E+00  0.00000000E+00
  0.00000000E+00  0.00000000E+00  0.00000000E+00
  0.00000000E+00  0.00000000E+00  0.00000000E+00
