Sodilite                                
   1.00000000000000     
     9.2705026728775088   -0.0098977819149357    0.0098977828246841
    -0.0098977828246841    9.2705026728775088   -0.0098977819149357
     0.0098977819149357   -0.0098977828246841    9.2705026728775088
   O    Na   Al   Si   Cl   K 
    24     3     6     6     2     5
Direct
  0.1430487065621927  0.4707791453239286  0.1531110377419558
  0.8545642162502880  0.5314465260524686  0.1503883536043630
  0.8543378892366155  0.4690388790095884  0.8448994331764959
  0.1415180365365968  0.5329748779177816  0.8460400648897372
  0.1503883536043631  0.1454357837497121  0.4685534739475308
  0.1531110377419558  0.8569512934378075  0.5292208546760718
  0.8460400648897372  0.8584819634634029  0.4670251220822184
  0.8448994331764959  0.1456621107633853  0.5309611209904117
  0.4670251220822184  0.1539599351102627  0.1415180365365968
  0.5309611209904117  0.1551005668235038  0.8543378892366155
  0.4685534739475308  0.8496116463956369  0.8545642162502880
  0.5292208546760718  0.8468889622580442  0.1430487065621927
  0.9608093564865651  0.6487946267727625  0.6556767069263196
  0.0365116545513957  0.3613475753781229  0.6488096018061980
  0.9598219121369976  0.3531412923284147  0.3418879385550418
  0.0288494007789836  0.6402698270823298  0.3500997844386187
  0.6468587076715852  0.6581120614449579  0.9598219121369976
  0.3597301729176703  0.6499002155613813  0.0288494007789836
  0.3512053732272379  0.3443232930736797  0.9608093564865651
  0.6386524246218768  0.3511903981938014  0.0365116545513957
  0.6488096018061980  0.9634883454486044  0.6386524246218768
  0.6556767069263196  0.0391906435134348  0.3512053732272379
  0.3500997844386187  0.9711505992210164  0.3597301729176703
  0.3418879385550418  0.0401780878630022  0.6468587076715852
  0.6968500167858704  0.6897663625076804  0.6967755885193919
  0.3102336374923194  0.3032244114806089  0.6968500167858704
  0.6967755885193919  0.3031499832141297  0.3102336374923194
  0.2486190859553476  0.4999533255445642 -0.0022808862667626
  0.7474167885529563  0.5017473084042355 -0.0022953253575992
 -0.0022953253575992  0.2525832114470433  0.4982526915957645
 -0.0022808862667626  0.7513809140446526  0.5000466744554356
  0.5000466744554357  0.0022808862667626  0.2486190859553476
  0.4982526915957645  0.0022953253575992  0.7474167885529563
  0.2487733817719621  0.0032324143444247  0.5006297563186458
  0.7483100697805715  0.0018586862673468  0.4973125895691166
  0.4973125895691166  0.2516899302194288 -0.0018586862673468
  0.5006297563186458  0.7512266182280377 -0.0032324143444247
 -0.0032324143444247  0.4993702436813546  0.2487733817719621
 -0.0018586862673468  0.5026874104308833  0.7483100697805715
 -0.0032431083968995  0.0032431083968996 -0.0032431083968996
  0.5286933294045744  0.4713066705954255  0.5286933294045744
  0.1805017854946750  0.1816559877326282  0.1813958903858438
  0.8183440122673719  0.8186041096141560  0.1805017854946750
  0.8148409409570827  0.1851590590429173  0.8148409409570827
  0.1813958903858438  0.8194982145053253  0.8183440122673719
  0.3333328375131350  0.6666671624868653  0.3333328375131350
 
  0.00000000E+00  0.00000000E+00  0.00000000E+00
  0.00000000E+00  0.00000000E+00  0.00000000E+00
  0.00000000E+00  0.00000000E+00  0.00000000E+00
  0.00000000E+00  0.00000000E+00  0.00000000E+00
  0.00000000E+00  0.00000000E+00  0.00000000E+00
  0.00000000E+00  0.00000000E+00  0.00000000E+00
  0.00000000E+00  0.00000000E+00  0.00000000E+00
  0.00000000E+00  0.00000000E+00  0.00000000E+00
  0.00000000E+00  0.00000000E+00  0.00000000E+00
  0.00000000E+00  0.00000000E+00  0.00000000E+00
  0.00000000E+00  0.00000000E+00  0.00000000E+00
  0.00000000E+00  0.00000000E+00  0.00000000E+00
  0.00000000E+00  0.00000000E+00  0.00000000E+00
  0.00000000E+00  0.00000000E+00  0.00000000E+00
  0.00000000E+00  0.00000000E+00  0.00000000E+00
  0.00000000E+00  0.00000000E+00  0.00000000E+00
  0.00000000E+00  0.00000000E+00  0.00000000E+00
  0.00000000E+00  0.00000000E+00  0.00000000E+00
  0.00000000E+00  0.00000000E+00  0.00000000E+00
  0.00000000E+00  0.00000000E+00  0.00000000E+00
  0.00000000E+00  0.00000000E+00  0.00000000E+00
  0.00000000E+00  0.00000000E+00  0.00000000E+00
  0.00000000E+00  0.00000000E+00  0.00000000E+00
  0.00000000E+00  0.00000000E+00  0.00000000E+00
  0.00000000E+00  0.00000000E+00  0.00000000E+00
  0.00000000E+00  0.00000000E+00  0.00000000E+00
  0.00000000E+00  0.00000000E+00  0.00000000E+00
  0.00000000E+00  0.00000000E+00  0.00000000E+00
  0.00000000E+00  0.00000000E+00  0.00000000E+00
  0.00000000E+00  0.00000000E+00  0.00000000E+00
  0.00000000E+00  0.00000000E+00  0.00000000E+00
  0.00000000E+00  0.00000000E+00  0.00000000E+00
  0.00000000E+00  0.00000000E+00  0.00000000E+00
  0.00000000E+00  0.00000000E+00  0.00000000E+00
  0.00000000E+00  0.00000000E+00  0.00000000E+00
  0.00000000E+00  0.00000000E+00  0.00000000E+00
  0.00000000E+00  0.00000000E+00  0.00000000E+00
  0.00000000E+00  0.00000000E+00  0.00000000E+00
  0.00000000E+00  0.00000000E+00  0.00000000E+00
  0.00000000E+00  0.00000000E+00  0.00000000E+00
  0.00000000E+00  0.00000000E+00  0.00000000E+00
  0.00000000E+00  0.00000000E+00  0.00000000E+00
  0.00000000E+00  0.00000000E+00  0.00000000E+00
  0.00000000E+00  0.00000000E+00  0.00000000E+00
  0.00000000E+00  0.00000000E+00  0.00000000E+00
  0.00000000E+00  0.00000000E+00  0.00000000E+00
