Sodilite                                
   1.00000000000000     
     9.1744828453549534    0.0032037570375803   -0.0244181102411469
     0.0032009046731369    9.1734281189245390    0.0258673570027563
    -0.0244179843035829    0.0258705978984059    9.1823104933211326
   O    Na   Al   Si   Cl   K 
    24     4     6     6     2     4
Direct
  0.1463864034749459  0.4473746224233879  0.1540480478241850
  0.8632205503179216  0.5462646489325207  0.1506160436893304
  0.8547881317538224  0.4533994677350693  0.8440768946615024
  0.1420013643504075  0.5360773635641433  0.8519420341066867
  0.1625283678793308  0.1470545752214735  0.4502697006798069
  0.1463444314176689  0.8635657661585465  0.5402206809873973
  0.8446139371027133  0.8484935940775724  0.4521572284145106
  0.8553507115418358  0.1354603602835631  0.5415189108865279
  0.4547455701649744  0.1461451629825544  0.1395210513020824
  0.5456512821558559  0.1533847197290411  0.8531316034776153
  0.4629200737965997  0.8470683265621424  0.8612654854639430
  0.5534128262327369  0.8432495288063935  0.1450552487160589
  0.9652540156301251  0.6339529393848625  0.6460047188970441
  0.0417564077611784  0.3462429907612226  0.6583917244506943
  0.9613552670128452  0.3643673231287872  0.3557484046135019
  0.0523319079272299  0.6477100247068088  0.3397004222547172
  0.6363577903312276  0.6394859082854825  0.9625919212681715
  0.3510580088595794  0.6588010627475827  0.0484687267709735
  0.3682107400925922  0.3533294013871069  0.9612017413950140
  0.6532975904559536  0.3365466740185493  0.0427980290710768
  0.6627349482420576  0.9569305248243163  0.6495250760393270
  0.6470229227129111  0.0384802529499354  0.3645515564537953
  0.3438031347622211  0.9491891402876842  0.3486502035911783
  0.3567031974844072  0.0344620322635524  0.6348795969209406
  0.1916800396608319  0.1913503846902914  0.1922617437744664
  0.8089712615428231  0.8095492965291884  0.1937743309528021
  0.8127559350090040  0.1871029578270149  0.8178804478968905
  0.2965075554967631  0.7046088607914838  0.2948058160288982
  0.2531585492421137  0.4986810131438885  0.0038874774830496
  0.7539167701251257  0.4939605418494097  0.0015689192982358
  0.0058010163242721  0.2462837856802819  0.4999426539689798
  0.0029151720445812  0.7468155410997306  0.4956343560607038
  0.5013771716970966 -0.0055909374150859  0.2492200695148626
  0.5059513893703937 -0.0033626535816696  0.7499943571865249
  0.2530131065731642 -0.0022299755618384  0.4941779360087362
  0.7533546877542138 -0.0055322846549459  0.5010971098347730
  0.5055646617078965  0.2465204416389142  0.0000569518094778
  0.5014061453348413  0.7467295198557783  0.0043413614798431
  0.0060333440532538  0.5002620884734695  0.2498431713367919
  0.0019892200716710  0.4928784163934414  0.7502400807241565
 -0.0282023947841859  0.0285241306062774  0.0354173399821958
  0.4625926302013556  0.5375906837789849  0.4589346868798184
  0.1621765976455565  0.8371105414753971  0.8371700663066879
  0.6711460231361224  0.6659097546282964  0.6714232560081531
  0.3330983915733284  0.3284613416496728  0.6702250501067815
  0.6729431447586361  0.3273401398797195  0.3317677654210903
 
  0.00000000E+00  0.00000000E+00  0.00000000E+00
  0.00000000E+00  0.00000000E+00  0.00000000E+00
  0.00000000E+00  0.00000000E+00  0.00000000E+00
  0.00000000E+00  0.00000000E+00  0.00000000E+00
  0.00000000E+00  0.00000000E+00  0.00000000E+00
  0.00000000E+00  0.00000000E+00  0.00000000E+00
  0.00000000E+00  0.00000000E+00  0.00000000E+00
  0.00000000E+00  0.00000000E+00  0.00000000E+00
  0.00000000E+00  0.00000000E+00  0.00000000E+00
  0.00000000E+00  0.00000000E+00  0.00000000E+00
  0.00000000E+00  0.00000000E+00  0.00000000E+00
  0.00000000E+00  0.00000000E+00  0.00000000E+00
  0.00000000E+00  0.00000000E+00  0.00000000E+00
  0.00000000E+00  0.00000000E+00  0.00000000E+00
  0.00000000E+00  0.00000000E+00  0.00000000E+00
  0.00000000E+00  0.00000000E+00  0.00000000E+00
  0.00000000E+00  0.00000000E+00  0.00000000E+00
  0.00000000E+00  0.00000000E+00  0.00000000E+00
  0.00000000E+00  0.00000000E+00  0.00000000E+00
  0.00000000E+00  0.00000000E+00  0.00000000E+00
  0.00000000E+00  0.00000000E+00  0.00000000E+00
  0.00000000E+00  0.00000000E+00  0.00000000E+00
  0.00000000E+00  0.00000000E+00  0.00000000E+00
  0.00000000E+00  0.00000000E+00  0.00000000E+00
  0.00000000E+00  0.00000000E+00  0.00000000E+00
  0.00000000E+00  0.00000000E+00  0.00000000E+00
  0.00000000E+00  0.00000000E+00  0.00000000E+00
  0.00000000E+00  0.00000000E+00  0.00000000E+00
  0.00000000E+00  0.00000000E+00  0.00000000E+00
  0.00000000E+00  0.00000000E+00  0.00000000E+00
  0.00000000E+00  0.00000000E+00  0.00000000E+00
  0.00000000E+00  0.00000000E+00  0.00000000E+00
  0.00000000E+00  0.00000000E+00  0.00000000E+00
  0.00000000E+00  0.00000000E+00  0.00000000E+00
  0.00000000E+00  0.00000000E+00  0.00000000E+00
  0.00000000E+00  0.00000000E+00  0.00000000E+00
  0.00000000E+00  0.00000000E+00  0.00000000E+00
  0.00000000E+00  0.00000000E+00  0.00000000E+00
  0.00000000E+00  0.00000000E+00  0.00000000E+00
  0.00000000E+00  0.00000000E+00  0.00000000E+00
  0.00000000E+00  0.00000000E+00  0.00000000E+00
  0.00000000E+00  0.00000000E+00  0.00000000E+00
  0.00000000E+00  0.00000000E+00  0.00000000E+00
  0.00000000E+00  0.00000000E+00  0.00000000E+00
  0.00000000E+00  0.00000000E+00  0.00000000E+00
  0.00000000E+00  0.00000000E+00  0.00000000E+00
