Sodilite                                
   1.00000000000000     
     9.0949785887862209   -0.0139858206174850    0.0160473915846619
    -0.0139785889189044    9.0938163055635037    0.0150800082856578
     0.0160446570351885    0.0150761059878044    9.1083055279797218
   O    Na   Al   Si   Cl   K 
    24     5     6     6     2     3
Direct
  0.1405971274142650  0.4438799588672252  0.1494888539950556
  0.8606602295571165  0.5560850663715899  0.1502512535520392
  0.8583940214329184  0.4562596686472244  0.8462983305651682
  0.1443014351988739  0.5460860219777113  0.8483178833516281
  0.1644529104278461  0.1541519365599605  0.4413207093725988
  0.1406965661193054  0.8721919223226275  0.5425935225372046
  0.8372175503813042  0.8471963005475829  0.4442774972626879
  0.8630069914264875  0.1310127021623815  0.5410581614302321
  0.4435312514251879  0.1519154587602084  0.1400193963863334
  0.5472360249900050  0.1526275195059138  0.8582684102205199
  0.4567781584813404  0.8488881692765696  0.8573364315233583
  0.5549008416788302  0.8510402496485879  0.1417648348381934
  0.9595345051089490  0.6392990285965283  0.6446446321105662
  0.0529473665569640  0.3525800912480257  0.6540734447616119
  0.9442454466109742  0.3661617002523426  0.3523777635464159
  0.0585398379805647  0.6451987862039011  0.3426150164493156
  0.6363937822180527  0.6454120901479087  0.9559236502574759
  0.3527312900815660  0.6591588237494880  0.0549670368618340
  0.3656095177738401  0.3563876651711007  0.9467585016737834
  0.6479598155343754  0.3428178633325421  0.0543061638187578
  0.6496127994781932  0.9583642945973078  0.6356408440655779
  0.6554247299578082  0.0577523106974470  0.3523287496140425
  0.3562095555619542  0.9456042324578614  0.3634478379818425
  0.3432826328995992  0.0533743010838042  0.6450533333536478
  0.1969262136646585  0.1972893454743468  0.1941555871939482
  0.8066450240462705  0.8076865478841112  0.1918159980574332
  0.3134101542526021  0.3143329889176327  0.6830218086341838
  0.6887314170483620  0.3110842448065838  0.3099010359365047
  0.3117656642473571  0.6897929935384954  0.3104122019673057
  0.2517528421035650  0.5020702889220228  0.0011704093799704
  0.7516595269940188  0.4991877937976624  0.0013870050059145
  0.0060852752386942  0.2516808024324468  0.4953473505247378
 -0.0004278540880686  0.7518334765764816  0.4925954357587987
  0.5018660674447672  0.0027995840633433  0.2489541708256165
  0.4994955951763909  0.0029457237583625  0.7477577769644934
  0.2513710811469730  0.0062274227156706  0.4968779632903089
  0.7516557903849898 -0.0007889284189461  0.4927833020219775
  0.5013826038546989  0.2513654493189331  0.0003561594663002
  0.4999841581916360  0.7514521340194399  0.0022271374868354
  0.0017468021705347  0.5025718071898090  0.2485880225647876
  0.0036879377054518  0.4989595178231974  0.7477377802378483
  0.0024775839557434  0.0026811093175669  0.0790624507179444
  0.4664096517736416  0.4666025508669950  0.4603562248773744
  0.8411926978686891  0.1596986769438843  0.8372414719891830
  0.1603648587223616  0.8405184089391045  0.8384005522636321
  0.6575525198003407  0.6565618989270153  0.6567178953050096
 
  0.00000000E+00  0.00000000E+00  0.00000000E+00
  0.00000000E+00  0.00000000E+00  0.00000000E+00
  0.00000000E+00  0.00000000E+00  0.00000000E+00
  0.00000000E+00  0.00000000E+00  0.00000000E+00
  0.00000000E+00  0.00000000E+00  0.00000000E+00
  0.00000000E+00  0.00000000E+00  0.00000000E+00
  0.00000000E+00  0.00000000E+00  0.00000000E+00
  0.00000000E+00  0.00000000E+00  0.00000000E+00
  0.00000000E+00  0.00000000E+00  0.00000000E+00
  0.00000000E+00  0.00000000E+00  0.00000000E+00
  0.00000000E+00  0.00000000E+00  0.00000000E+00
  0.00000000E+00  0.00000000E+00  0.00000000E+00
  0.00000000E+00  0.00000000E+00  0.00000000E+00
  0.00000000E+00  0.00000000E+00  0.00000000E+00
  0.00000000E+00  0.00000000E+00  0.00000000E+00
  0.00000000E+00  0.00000000E+00  0.00000000E+00
  0.00000000E+00  0.00000000E+00  0.00000000E+00
  0.00000000E+00  0.00000000E+00  0.00000000E+00
  0.00000000E+00  0.00000000E+00  0.00000000E+00
  0.00000000E+00  0.00000000E+00  0.00000000E+00
  0.00000000E+00  0.00000000E+00  0.00000000E+00
  0.00000000E+00  0.00000000E+00  0.00000000E+00
  0.00000000E+00  0.00000000E+00  0.00000000E+00
  0.00000000E+00  0.00000000E+00  0.00000000E+00
  0.00000000E+00  0.00000000E+00  0.00000000E+00
  0.00000000E+00  0.00000000E+00  0.00000000E+00
  0.00000000E+00  0.00000000E+00  0.00000000E+00
  0.00000000E+00  0.00000000E+00  0.00000000E+00
  0.00000000E+00  0.00000000E+00  0.00000000E+00
  0.00000000E+00  0.00000000E+00  0.00000000E+00
  0.00000000E+00  0.00000000E+00  0.00000000E+00
  0.00000000E+00  0.00000000E+00  0.00000000E+00
  0.00000000E+00  0.00000000E+00  0.00000000E+00
  0.00000000E+00  0.00000000E+00  0.00000000E+00
  0.00000000E+00  0.00000000E+00  0.00000000E+00
  0.00000000E+00  0.00000000E+00  0.00000000E+00
  0.00000000E+00  0.00000000E+00  0.00000000E+00
  0.00000000E+00  0.00000000E+00  0.00000000E+00
  0.00000000E+00  0.00000000E+00  0.00000000E+00
  0.00000000E+00  0.00000000E+00  0.00000000E+00
  0.00000000E+00  0.00000000E+00  0.00000000E+00
  0.00000000E+00  0.00000000E+00  0.00000000E+00
  0.00000000E+00  0.00000000E+00  0.00000000E+00
  0.00000000E+00  0.00000000E+00  0.00000000E+00
  0.00000000E+00  0.00000000E+00  0.00000000E+00
  0.00000000E+00  0.00000000E+00  0.00000000E+00
