Sodilite                                
   1.00000000000000     
     9.0332177671267129    0.0002452496005691   -0.0002452496005691
     0.0002476343151581    9.0386009005856707    0.0321381426223306
    -0.0002476343151581    0.0321381426223306    9.0386009005856707
   O    Na   Al   Si   Cl   K 
    24     6     6     6     2     2
Direct
  0.1384492247022005  0.4515684893068713  0.1443188672987145
  0.8554125577014138  0.5584757425773087  0.1562579061782300
  0.8669583541666025  0.4416089248449236  0.8540256168743451
  0.1457000730275601  0.5616019483096275  0.8450111039165464
  0.1485441286517482  0.1352897091044337  0.4501574856173496
  0.1573010212112357  0.8548689526652211  0.5621932268299487
  0.8580132603334575  0.8639763039303362  0.4429249980763930
  0.8462067141878749  0.1453759510507678  0.5578025264345142
  0.4541487893753479  0.1462468543513464  0.1358495526135694
  0.5610970208328830  0.1545323740885233  0.8525751595382699
  0.4415604309544143  0.8554244530230946  0.8663290383308053
  0.5618415426725754  0.8437517546382864  0.1448834625464865
  0.9415604309544138  0.6336709616691947  0.6445755469769054
  0.0618415426725752  0.3551165374535133  0.6562482453617136
  0.9541487893753479  0.3641504473864305  0.3537531456486537
  0.0610970208328828  0.6474248404617301  0.3454676259114766
  0.6457000730275603  0.6549888960834536  0.9383980516903725
  0.3669583541666022  0.6459743831256549  0.0583910751550766
  0.3554125577014135  0.3437420938217701  0.9415242574226913
  0.6384492247022007  0.3556811327012852  0.0484315106931287
  0.6573010212112355  0.9378067731700513  0.6451310473347789
  0.6485441286517485  0.0498425143826505  0.3647102908955663
  0.3462067141878753  0.9421974735654858  0.3546240489492322
  0.3580132603334575  0.0570750019236070  0.6360236960696638
  0.8174045320787501  0.8150421446857109  0.1850825492234067
  0.8165688372686650  0.1838226305014488  0.8145496850132748
  0.1887558053313195  0.8127730761534820  0.8133104684665705
  0.6887558053313200  0.6866895315334295  0.6872269238465180
  0.3174045320787500  0.3149174507765933  0.6849578553142891
  0.3165688372686647  0.6854503149867252  0.3161773694985512
  0.2534495532462447  0.5009524786471290 -0.0036684429306829
  0.7534495532462447  0.5036684429306829 -0.0009524786471292
  0.0027842927501216  0.2500768802170741  0.5039000530837969
  0.0053056920982666  0.7499163231888846  0.5007657835208247
  0.5027842927501218 -0.0039000530837969  0.2499231197829260
  0.5053056920982669 -0.0007657835208247  0.7500836768111154
  0.2532188791689189 -0.0030663328472897  0.5010153196591477
  0.7532188791689186 -0.0010153196591477  0.5030663328472894
  0.5026986790074106  0.2499955519689034 -0.0050058866310143
  0.5046056749773449  0.7500285025118046  0.0008978894260566
  0.0026986790074109  0.5050058866310140  0.2500044480310967
  0.0046056749773453  0.4991021105739433  0.7499714974881954
 -0.0344180271311246 -0.0396325447241823 -0.0393665244291670
  0.4655819728688755  0.5393665244291670  0.5396325447241822
  0.1543929633867694  0.1540411340148953  0.1528614635512158
  0.6543929633867696  0.3471385364487843  0.3459588659851048
 
  0.00000000E+00  0.00000000E+00  0.00000000E+00
  0.00000000E+00  0.00000000E+00  0.00000000E+00
  0.00000000E+00  0.00000000E+00  0.00000000E+00
  0.00000000E+00  0.00000000E+00  0.00000000E+00
  0.00000000E+00  0.00000000E+00  0.00000000E+00
  0.00000000E+00  0.00000000E+00  0.00000000E+00
  0.00000000E+00  0.00000000E+00  0.00000000E+00
  0.00000000E+00  0.00000000E+00  0.00000000E+00
  0.00000000E+00  0.00000000E+00  0.00000000E+00
  0.00000000E+00  0.00000000E+00  0.00000000E+00
  0.00000000E+00  0.00000000E+00  0.00000000E+00
  0.00000000E+00  0.00000000E+00  0.00000000E+00
  0.00000000E+00  0.00000000E+00  0.00000000E+00
  0.00000000E+00  0.00000000E+00  0.00000000E+00
  0.00000000E+00  0.00000000E+00  0.00000000E+00
  0.00000000E+00  0.00000000E+00  0.00000000E+00
  0.00000000E+00  0.00000000E+00  0.00000000E+00
  0.00000000E+00  0.00000000E+00  0.00000000E+00
  0.00000000E+00  0.00000000E+00  0.00000000E+00
  0.00000000E+00  0.00000000E+00  0.00000000E+00
  0.00000000E+00  0.00000000E+00  0.00000000E+00
  0.00000000E+00  0.00000000E+00  0.00000000E+00
  0.00000000E+00  0.00000000E+00  0.00000000E+00
  0.00000000E+00  0.00000000E+00  0.00000000E+00
  0.00000000E+00  0.00000000E+00  0.00000000E+00
  0.00000000E+00  0.00000000E+00  0.00000000E+00
  0.00000000E+00  0.00000000E+00  0.00000000E+00
  0.00000000E+00  0.00000000E+00  0.00000000E+00
  0.00000000E+00  0.00000000E+00  0.00000000E+00
  0.00000000E+00  0.00000000E+00  0.00000000E+00
  0.00000000E+00  0.00000000E+00  0.00000000E+00
  0.00000000E+00  0.00000000E+00  0.00000000E+00
  0.00000000E+00  0.00000000E+00  0.00000000E+00
  0.00000000E+00  0.00000000E+00  0.00000000E+00
  0.00000000E+00  0.00000000E+00  0.00000000E+00
  0.00000000E+00  0.00000000E+00  0.00000000E+00
  0.00000000E+00  0.00000000E+00  0.00000000E+00
  0.00000000E+00  0.00000000E+00  0.00000000E+00
  0.00000000E+00  0.00000000E+00  0.00000000E+00
  0.00000000E+00  0.00000000E+00  0.00000000E+00
  0.00000000E+00  0.00000000E+00  0.00000000E+00
  0.00000000E+00  0.00000000E+00  0.00000000E+00
  0.00000000E+00  0.00000000E+00  0.00000000E+00
  0.00000000E+00  0.00000000E+00  0.00000000E+00
  0.00000000E+00  0.00000000E+00  0.00000000E+00
  0.00000000E+00  0.00000000E+00  0.00000000E+00
