Sodilite                                
   1.00000000000000     
     9.0481041637701090    0.0000000000000000   -0.0319882245174102
     0.0000000000000000    9.0537782020293420    0.0000000000000000
    -0.0319793021054185    0.0000000000000000    9.0451452381565307
   O    Na   Al   Si   Cl   K 
    24     6     6     6     2     2
Direct
  0.1405096775649799  0.4413910624081263  0.1497203908518623
  0.8590501840147826  0.5561856666797043  0.1517324295301243
  0.8594903224350205  0.4413910624081263  0.8502796091481375
  0.1409498159852176  0.5561856666797043  0.8482675704698749
  0.1526029505119589  0.1391119798722136  0.4447058369069867
  0.1488446702721206  0.8581001805005024  0.5589948611701636
  0.8511553297278793  0.8581001805005024  0.4410051388298365
  0.8473970494880414  0.1391119798722136  0.5552941630930136
  0.4457278064970680  0.1476633620793577  0.1423078151112054
  0.5542721935029317  0.1476633620793577  0.8576921848887946
  0.4396364858590713  0.8469568635589815  0.8610107218345866
  0.5603635141409291  0.8469568635589815  0.1389892781654133
  0.9414545644881630  0.6389848768777420  0.6503897029441374
  0.0504601956611519  0.3574110901691184  0.6505538695562002
  0.9495398043388477  0.3574110901691184  0.3494461304437995
  0.0585454355118369  0.6389848768777420  0.3496102970558624
  0.6398050121235462  0.6476380747049091  0.9417154855820771
  0.3601949878764540  0.6476380747049091  0.0582845144179235
  0.3583354590492081  0.3464264822024697  0.9493636421316451
  0.6416645409507920  0.3464264822024697  0.0506363578683549
  0.6633228926810730  0.9384423256662037  0.6536439710906100
  0.6382853570827661  0.0447028954016881  0.3717292823739863
  0.3366771073189265  0.9384423256662037  0.3463560289093898
  0.3617146429172337  0.0447028954016881  0.6282707176260137
  0.1809250717460188  0.1772185165495647  0.1796642584393736
  0.8179416990793594  0.8162897550952003  0.1830959987947309
  0.8190749282539814  0.1772185165495647  0.8203357415606262
  0.1820583009206408  0.8162897550952003  0.8169040012052688
  0.6939910883389716  0.6899035085697121  0.6942496798505140
  0.3060089116610281  0.6899035085697121  0.3057503201494859
  0.2496589264285767  0.4978271053410285  0.0001052583520470
  0.7503410735714232  0.4978271053410285 -0.0001052583520470
 -0.0000000000000000  0.2458855943295296  0.5000000000000000
 -0.0000000000000000  0.7473813432445544  0.5000000000000000
  0.4965183992203688 -0.0071669671926158  0.2499446675219835
  0.5034816007796314 -0.0071669671926158  0.7500553324780166
  0.2499871601813184 -0.0060684661186632  0.4954149096188171
  0.7500128398186816 -0.0060684661186632  0.5045850903811836
  0.5000000000000000  0.2459895753958575  0.0000000000000000
  0.5000000000000000  0.7469482087402163  0.0000000000000000
  0.0013339098065927  0.4981840028545736  0.2499213704593032
 -0.0013339098065927  0.4981840028545736  0.7500786295406965
 -0.0000000000000000 -0.0050294414823613  0.0000000000000000
  0.5000000000000000  0.5818684165442874  0.5000000000000000
  0.3430823182339076  0.3392758363941411  0.6563975234852497
  0.6569176817660918  0.3392758363941411  0.3436024765147504
 
  0.00000000E+00  0.00000000E+00  0.00000000E+00
  0.00000000E+00  0.00000000E+00  0.00000000E+00
  0.00000000E+00  0.00000000E+00  0.00000000E+00
  0.00000000E+00  0.00000000E+00  0.00000000E+00
  0.00000000E+00  0.00000000E+00  0.00000000E+00
  0.00000000E+00  0.00000000E+00  0.00000000E+00
  0.00000000E+00  0.00000000E+00  0.00000000E+00
  0.00000000E+00  0.00000000E+00  0.00000000E+00
  0.00000000E+00  0.00000000E+00  0.00000000E+00
  0.00000000E+00  0.00000000E+00  0.00000000E+00
  0.00000000E+00  0.00000000E+00  0.00000000E+00
  0.00000000E+00  0.00000000E+00  0.00000000E+00
  0.00000000E+00  0.00000000E+00  0.00000000E+00
  0.00000000E+00  0.00000000E+00  0.00000000E+00
  0.00000000E+00  0.00000000E+00  0.00000000E+00
  0.00000000E+00  0.00000000E+00  0.00000000E+00
  0.00000000E+00  0.00000000E+00  0.00000000E+00
  0.00000000E+00  0.00000000E+00  0.00000000E+00
  0.00000000E+00  0.00000000E+00  0.00000000E+00
  0.00000000E+00  0.00000000E+00  0.00000000E+00
  0.00000000E+00  0.00000000E+00  0.00000000E+00
  0.00000000E+00  0.00000000E+00  0.00000000E+00
  0.00000000E+00  0.00000000E+00  0.00000000E+00
  0.00000000E+00  0.00000000E+00  0.00000000E+00
  0.00000000E+00  0.00000000E+00  0.00000000E+00
  0.00000000E+00  0.00000000E+00  0.00000000E+00
  0.00000000E+00  0.00000000E+00  0.00000000E+00
  0.00000000E+00  0.00000000E+00  0.00000000E+00
  0.00000000E+00  0.00000000E+00  0.00000000E+00
  0.00000000E+00  0.00000000E+00  0.00000000E+00
  0.00000000E+00  0.00000000E+00  0.00000000E+00
  0.00000000E+00  0.00000000E+00  0.00000000E+00
  0.00000000E+00  0.00000000E+00  0.00000000E+00
  0.00000000E+00  0.00000000E+00  0.00000000E+00
  0.00000000E+00  0.00000000E+00  0.00000000E+00
  0.00000000E+00  0.00000000E+00  0.00000000E+00
  0.00000000E+00  0.00000000E+00  0.00000000E+00
  0.00000000E+00  0.00000000E+00  0.00000000E+00
  0.00000000E+00  0.00000000E+00  0.00000000E+00
  0.00000000E+00  0.00000000E+00  0.00000000E+00
  0.00000000E+00  0.00000000E+00  0.00000000E+00
  0.00000000E+00  0.00000000E+00  0.00000000E+00
  0.00000000E+00  0.00000000E+00  0.00000000E+00
  0.00000000E+00  0.00000000E+00  0.00000000E+00
  0.00000000E+00  0.00000000E+00  0.00000000E+00
  0.00000000E+00  0.00000000E+00  0.00000000E+00
