Sodilite                                
   1.00000000000000     
     9.0946353141175180   -0.0146557309670246   -0.0148362186532169
    -0.0146626692766974    9.0958426569171422   -0.0160098059970346
    -0.0148335888757289   -0.0160092745084540    9.1069904375181121
   O    Na   Al   Si   Cl   K 
    24     5     6     6     2     3
Direct
  0.1472536381010458  0.4470753893862915  0.1539579862305466
  0.8606620682039159  0.5406586252107419  0.1446783976138842
  0.8548567380819241  0.4414672932730040  0.8427108721269366
  0.1339090522335599  0.5557614136891976  0.8522923691433891
  0.1439834130135953  0.1347123590106560  0.4466367780107036
  0.1568313611315697  0.8523326011970468  0.5541831834519597
  0.8542598577256274  0.8632871084246418  0.4556435446815644
  0.8412266317384726  0.1469021894614607  0.5548681480327403
  0.4466304960977345  0.1565642459119664  0.1450276895852125
  0.5543139736888276  0.1439253777960641  0.8633720050668301
  0.4423409535849074  0.8446537932637976  0.8524278712742421
  0.5418655776128555  0.8504071093424883  0.1356862665163402
  0.9438806674033969  0.6394632181547595  0.6503864079130527
  0.0559700597824296  0.3595363485188237  0.6493541552466523
  0.9537424281057516  0.3556130107888101  0.3481945845704974
  0.0437903673191974  0.6413954288643281  0.3464926940494666
  0.6525785537236489  0.6625490917455950  0.9443703418189541
  0.3687874378132265  0.6372519160857625  0.0412466793820836
  0.3459935316034402  0.3357510014202232  0.9415855631756801
  0.6279931116979757  0.3591068292482249  0.0428139212872539
  0.6491373337671897  0.9451411336679095  0.6419190941161163
  0.6509458283608734  0.0432976460338710  0.3575145597886639
  0.3472864588146261  0.9525170608755947  0.3581378778937117
  0.3482305079246856  0.0562888982502737  0.6398717137365229
  0.1858456072031439  0.1868334197763093  0.1825260092469963
  0.8103230302642297  0.1882218714045259  0.8103188702317093
  0.1890025208387711  0.8114585815983820  0.8098493873138805
  0.6922966690579799  0.6934018501637965  0.6919677336373273
  0.3024555370850984  0.3027588554358800  0.6943860029770994
  0.2483113955977710  0.4940742510178515 -0.0046116645419485
  0.7481570353234605  0.5003618336061846 -0.0073090428217719
 -0.0019387098568365  0.2482283685874365  0.5010282020031297
  0.0006523918643703  0.7483526449297430  0.5013796376067527
  0.4970532035770063  0.0004276415527903  0.2477874827868714
  0.4972916359249243 -0.0018508426646951  0.7489695870347310
  0.2486173224431248 -0.0013380683290604  0.5002380234417119
  0.7485980608947433 -0.0001313132840498  0.5022312187340943
  0.4938579140961428  0.2486268516317015 -0.0030627702722251
  0.5007521634624507  0.7483538124813955 -0.0071334373335202
  0.0009413262324491  0.4962876799342391  0.2477330160619529
 -0.0025882005769057  0.4983058099481757  0.7485814055797436
  0.0335487338726702  0.0337419084528550 -0.0404300780653624
  0.4971705404329556  0.4973894185309209  0.5795028983483895
  0.8436325245416686  0.8426222540272592  0.1562732174685677
  0.6593581982080042  0.3395975263007010  0.3387751673085022
  0.3401910519822989  0.6586165552761285  0.3376264285403642
 
  0.00000000E+00  0.00000000E+00  0.00000000E+00
  0.00000000E+00  0.00000000E+00  0.00000000E+00
  0.00000000E+00  0.00000000E+00  0.00000000E+00
  0.00000000E+00  0.00000000E+00  0.00000000E+00
  0.00000000E+00  0.00000000E+00  0.00000000E+00
  0.00000000E+00  0.00000000E+00  0.00000000E+00
  0.00000000E+00  0.00000000E+00  0.00000000E+00
  0.00000000E+00  0.00000000E+00  0.00000000E+00
  0.00000000E+00  0.00000000E+00  0.00000000E+00
  0.00000000E+00  0.00000000E+00  0.00000000E+00
  0.00000000E+00  0.00000000E+00  0.00000000E+00
  0.00000000E+00  0.00000000E+00  0.00000000E+00
  0.00000000E+00  0.00000000E+00  0.00000000E+00
  0.00000000E+00  0.00000000E+00  0.00000000E+00
  0.00000000E+00  0.00000000E+00  0.00000000E+00
  0.00000000E+00  0.00000000E+00  0.00000000E+00
  0.00000000E+00  0.00000000E+00  0.00000000E+00
  0.00000000E+00  0.00000000E+00  0.00000000E+00
  0.00000000E+00  0.00000000E+00  0.00000000E+00
  0.00000000E+00  0.00000000E+00  0.00000000E+00
  0.00000000E+00  0.00000000E+00  0.00000000E+00
  0.00000000E+00  0.00000000E+00  0.00000000E+00
  0.00000000E+00  0.00000000E+00  0.00000000E+00
  0.00000000E+00  0.00000000E+00  0.00000000E+00
  0.00000000E+00  0.00000000E+00  0.00000000E+00
  0.00000000E+00  0.00000000E+00  0.00000000E+00
  0.00000000E+00  0.00000000E+00  0.00000000E+00
  0.00000000E+00  0.00000000E+00  0.00000000E+00
  0.00000000E+00  0.00000000E+00  0.00000000E+00
  0.00000000E+00  0.00000000E+00  0.00000000E+00
  0.00000000E+00  0.00000000E+00  0.00000000E+00
  0.00000000E+00  0.00000000E+00  0.00000000E+00
  0.00000000E+00  0.00000000E+00  0.00000000E+00
  0.00000000E+00  0.00000000E+00  0.00000000E+00
  0.00000000E+00  0.00000000E+00  0.00000000E+00
  0.00000000E+00  0.00000000E+00  0.00000000E+00
  0.00000000E+00  0.00000000E+00  0.00000000E+00
  0.00000000E+00  0.00000000E+00  0.00000000E+00
  0.00000000E+00  0.00000000E+00  0.00000000E+00
  0.00000000E+00  0.00000000E+00  0.00000000E+00
  0.00000000E+00  0.00000000E+00  0.00000000E+00
  0.00000000E+00  0.00000000E+00  0.00000000E+00
  0.00000000E+00  0.00000000E+00  0.00000000E+00
  0.00000000E+00  0.00000000E+00  0.00000000E+00
  0.00000000E+00  0.00000000E+00  0.00000000E+00
  0.00000000E+00  0.00000000E+00  0.00000000E+00
