Sodilite                                
   1.00000000000000     
     9.1504978803148287   -0.0243761543558894   -0.0243761543558894
    -0.0243920923572798    9.1606219319553155   -0.0063268970641585
    -0.0243920923572798   -0.0063268970641585    9.1606219319553155
   O    Na   Al   Si   Cl   K 
    24     4     6     6     2     4
Direct
  0.1552067977820128  0.4494781250897933  0.1598024632169182
  0.8676288057055488  0.5335974761011316  0.1380497985356315
  0.8475608759888069  0.4438741674017833  0.8337814465261612
  0.1292610586337997  0.5401160921004858  0.8573742670223995
  0.1498507553422666  0.1391962822794709  0.4483146833129027
  0.1550737626775296  0.8542366644078215  0.5395777370018107
  0.8513228294895128  0.8572741001273484  0.4589080736053706
  0.8455899637206465  0.1424134362872390  0.5498914536997614
  0.4523325679313233  0.1514966887127109  0.1397714184340946
  0.5523951149093493  0.1479828801652773  0.8566950437712566
  0.4571343216707278  0.8469977866920427  0.8547057931068939
  0.5395628917349867  0.8437099862634290  0.1402232274368454
  0.9523325679313233  0.6397714184340946  0.6514966887127110
  0.0523951149093492  0.3566950437712563  0.6479828801652775
  0.9571343216707277  0.3547057931068937  0.3469977866920428
  0.0395628917349865  0.6402232274368452  0.3437099862634290
  0.6552067977820131  0.6598024632169183  0.9494781250897931
  0.3676288057055490  0.6380497985356318  0.0335974761011318
  0.3475608759888062  0.3337814465261615  0.9438741674017832
  0.6292610586338003  0.3573742670223992  0.0401160921004864
  0.6498507553422670  0.9483146833129028  0.6391962822794701
  0.6550737626775296  0.0395777370018110  0.3542366644078212
  0.3513228294895129  0.9589080736053710  0.3572741001273482
  0.3455899637206462  0.0498914536997618  0.6424134362872392
  0.1924494097993249  0.1930005309906747  0.1919675233998949
  0.8024442775367266  0.1945750339129078  0.8029890044407650
  0.6924494097993252  0.6919675233998950  0.6930005309906744
  0.3024442775367264  0.3029890044407652  0.6945750339129078
  0.2501586141233214  0.4903301652239026 -0.0032132847355321
  0.7501586141233212  0.4967867152644678 -0.0096698347760974
 -0.0000062303111918  0.2468697942478230  0.4985575351996350
  0.0008459712517768  0.7458776054905832  0.4985189982269715
  0.5008459712517769 -0.0014810017730286  0.2458776054905836
  0.4999937696888086 -0.0014424648003652  0.7468697942478228
  0.2503970385041220 -0.0001691075962545  0.4973626592063171
  0.7503970385041221 -0.0026373407936829  0.4998308924037451
  0.4961363114388755  0.2472841624586868 -0.0057513545938598
  0.5042626020010835  0.7461511763042750 -0.0062297692212701
  0.0042626020010838  0.4937702307787297  0.2461511763042748
 -0.0038636885611244  0.4942486454061402  0.7472841624586871
 -0.0015465839949203  0.0715731660911730 -0.0041886882897283
  0.4984534160050797  0.4958113117102719  0.5715731660911729
  0.8378853785785022  0.8345064068369761  0.1631965062577831
  0.1640534654858691  0.8341421325045795  0.8351807123451155
  0.6640534654858692  0.3351807123451154  0.3341421325045793
  0.3378853785785021  0.6631965062577829  0.3345064068369762
 
  0.00000000E+00  0.00000000E+00  0.00000000E+00
  0.00000000E+00  0.00000000E+00  0.00000000E+00
  0.00000000E+00  0.00000000E+00  0.00000000E+00
  0.00000000E+00  0.00000000E+00  0.00000000E+00
  0.00000000E+00  0.00000000E+00  0.00000000E+00
  0.00000000E+00  0.00000000E+00  0.00000000E+00
  0.00000000E+00  0.00000000E+00  0.00000000E+00
  0.00000000E+00  0.00000000E+00  0.00000000E+00
  0.00000000E+00  0.00000000E+00  0.00000000E+00
  0.00000000E+00  0.00000000E+00  0.00000000E+00
  0.00000000E+00  0.00000000E+00  0.00000000E+00
  0.00000000E+00  0.00000000E+00  0.00000000E+00
  0.00000000E+00  0.00000000E+00  0.00000000E+00
  0.00000000E+00  0.00000000E+00  0.00000000E+00
  0.00000000E+00  0.00000000E+00  0.00000000E+00
  0.00000000E+00  0.00000000E+00  0.00000000E+00
  0.00000000E+00  0.00000000E+00  0.00000000E+00
  0.00000000E+00  0.00000000E+00  0.00000000E+00
  0.00000000E+00  0.00000000E+00  0.00000000E+00
  0.00000000E+00  0.00000000E+00  0.00000000E+00
  0.00000000E+00  0.00000000E+00  0.00000000E+00
  0.00000000E+00  0.00000000E+00  0.00000000E+00
  0.00000000E+00  0.00000000E+00  0.00000000E+00
  0.00000000E+00  0.00000000E+00  0.00000000E+00
  0.00000000E+00  0.00000000E+00  0.00000000E+00
  0.00000000E+00  0.00000000E+00  0.00000000E+00
  0.00000000E+00  0.00000000E+00  0.00000000E+00
  0.00000000E+00  0.00000000E+00  0.00000000E+00
  0.00000000E+00  0.00000000E+00  0.00000000E+00
  0.00000000E+00  0.00000000E+00  0.00000000E+00
  0.00000000E+00  0.00000000E+00  0.00000000E+00
  0.00000000E+00  0.00000000E+00  0.00000000E+00
  0.00000000E+00  0.00000000E+00  0.00000000E+00
  0.00000000E+00  0.00000000E+00  0.00000000E+00
  0.00000000E+00  0.00000000E+00  0.00000000E+00
  0.00000000E+00  0.00000000E+00  0.00000000E+00
  0.00000000E+00  0.00000000E+00  0.00000000E+00
  0.00000000E+00  0.00000000E+00  0.00000000E+00
  0.00000000E+00  0.00000000E+00  0.00000000E+00
  0.00000000E+00  0.00000000E+00  0.00000000E+00
  0.00000000E+00  0.00000000E+00  0.00000000E+00
  0.00000000E+00  0.00000000E+00  0.00000000E+00
  0.00000000E+00  0.00000000E+00  0.00000000E+00
  0.00000000E+00  0.00000000E+00  0.00000000E+00
  0.00000000E+00  0.00000000E+00  0.00000000E+00
  0.00000000E+00  0.00000000E+00  0.00000000E+00
