Sodilite                                
   1.00000000000000     
     9.1590109717421733   -0.0257603746646375   -0.0042364496498677
    -0.0257573050886510    9.1511899306302418   -0.0257573050886510
    -0.0042364496498677   -0.0257603746646375    9.1590109717421733
   O    Na   Al   Si   Cl   K 
    24     4     6     6     2     4
Direct
  0.1422131751709931  0.4530599360991875  0.1490840468455256
  0.8542860878982322  0.5378934869106693  0.1486405913335136
  0.8574977575060355  0.4558551892244184  0.8457820831011280
  0.1393464250907702  0.5543498956266764  0.8455423290718532
  0.1474193099345024  0.1406985431366111  0.4485171583476836
  0.1520159088095461  0.8571682327477237  0.5492219852297383
  0.8474578255846985  0.8585032337514975  0.4580649784410791
  0.8431959212426159  0.1446891535511590  0.5403195090015096
  0.4480165451357858  0.1648846310946497  0.1513535394663271
  0.5388431101750455  0.1390732532553810  0.8680546536899064
  0.4453584539718458  0.8383619200902637  0.8437425432030131
  0.5352156110161711  0.8574135484591741  0.1286412889880839
  0.9485171583476837  0.6406985431366110  0.6474193099345024
  0.0492219852297383  0.3571682327477239  0.6520159088095461
  0.9580649784410790  0.3585032337514978  0.3474578255846987
  0.0403195090015099  0.6446891535511591  0.3431959212426158
  0.6513535394663271  0.6648846310946498  0.9480165451357856
  0.3680546536899060  0.6390732532553814  0.0388431101750453
  0.3437425432030127  0.3383619200902635  0.9453584539718460
  0.6286412889880839  0.3574135484591739  0.0352156110161712
  0.6490840468455252  0.9530599360991875  0.6422131751709934
  0.6486405913335139  0.0378934869106693  0.3542860878982321
  0.3457820831011278  0.9558551892244189  0.3574977575060359
  0.3455423290718532  0.0543498956266764  0.6393464250907707
  0.1917010064922010  0.1936833791239698  0.1916433630577951
  0.1957382692411366  0.8036887801691566  0.8022787013775158
  0.6916433630577958  0.6936833791239696  0.6917010064922011
  0.3022787013775159  0.3036887801691563  0.6957382692411368
  0.2471638092170597  0.4973967199995623 -0.0063916259948732
  0.7457243688861298  0.5032875390467464 -0.0065809427476479
 -0.0016220339715460  0.2502425813001170  0.4985111309829866
 -0.0014888690170128  0.7502425813001169  0.4983779660284537
  0.4934190572523520  0.0032875390467467  0.2457243688861301
  0.4936083740051270 -0.0026032800004379  0.7471638092170599
  0.2471753083109249  0.0014895485830137  0.4985355706605684
  0.7462238293290330 -0.0008098145160307  0.4985175269185247
  0.4897275809654282  0.2501308561991862 -0.0014730079648190
  0.4985269920351810  0.7501308561991860 -0.0102724190345717
 -0.0014824730814757  0.4991901854839691  0.2462238293290331
 -0.0014644293394313  0.5014895485830135  0.7471753083109252
  0.0724104539841346 -0.0011293753641718 -0.0048108953124977
  0.4951891046875027  0.4988706246358282  0.5724104539841347
  0.8361447489551048  0.8366385143921601  0.1621789819316268
  0.8333883902384821  0.1634302471188791  0.8359846271871277
  0.6621789819316267  0.3366385143921599  0.3361447489551047
  0.3359846271871278  0.6634302471188792  0.3333883902384825
 
  0.00000000E+00  0.00000000E+00  0.00000000E+00
  0.00000000E+00  0.00000000E+00  0.00000000E+00
  0.00000000E+00  0.00000000E+00  0.00000000E+00
  0.00000000E+00  0.00000000E+00  0.00000000E+00
  0.00000000E+00  0.00000000E+00  0.00000000E+00
  0.00000000E+00  0.00000000E+00  0.00000000E+00
  0.00000000E+00  0.00000000E+00  0.00000000E+00
  0.00000000E+00  0.00000000E+00  0.00000000E+00
  0.00000000E+00  0.00000000E+00  0.00000000E+00
  0.00000000E+00  0.00000000E+00  0.00000000E+00
  0.00000000E+00  0.00000000E+00  0.00000000E+00
  0.00000000E+00  0.00000000E+00  0.00000000E+00
  0.00000000E+00  0.00000000E+00  0.00000000E+00
  0.00000000E+00  0.00000000E+00  0.00000000E+00
  0.00000000E+00  0.00000000E+00  0.00000000E+00
  0.00000000E+00  0.00000000E+00  0.00000000E+00
  0.00000000E+00  0.00000000E+00  0.00000000E+00
  0.00000000E+00  0.00000000E+00  0.00000000E+00
  0.00000000E+00  0.00000000E+00  0.00000000E+00
  0.00000000E+00  0.00000000E+00  0.00000000E+00
  0.00000000E+00  0.00000000E+00  0.00000000E+00
  0.00000000E+00  0.00000000E+00  0.00000000E+00
  0.00000000E+00  0.00000000E+00  0.00000000E+00
  0.00000000E+00  0.00000000E+00  0.00000000E+00
  0.00000000E+00  0.00000000E+00  0.00000000E+00
  0.00000000E+00  0.00000000E+00  0.00000000E+00
  0.00000000E+00  0.00000000E+00  0.00000000E+00
  0.00000000E+00  0.00000000E+00  0.00000000E+00
  0.00000000E+00  0.00000000E+00  0.00000000E+00
  0.00000000E+00  0.00000000E+00  0.00000000E+00
  0.00000000E+00  0.00000000E+00  0.00000000E+00
  0.00000000E+00  0.00000000E+00  0.00000000E+00
  0.00000000E+00  0.00000000E+00  0.00000000E+00
  0.00000000E+00  0.00000000E+00  0.00000000E+00
  0.00000000E+00  0.00000000E+00  0.00000000E+00
  0.00000000E+00  0.00000000E+00  0.00000000E+00
  0.00000000E+00  0.00000000E+00  0.00000000E+00
  0.00000000E+00  0.00000000E+00  0.00000000E+00
  0.00000000E+00  0.00000000E+00  0.00000000E+00
  0.00000000E+00  0.00000000E+00  0.00000000E+00
  0.00000000E+00  0.00000000E+00  0.00000000E+00
  0.00000000E+00  0.00000000E+00  0.00000000E+00
  0.00000000E+00  0.00000000E+00  0.00000000E+00
  0.00000000E+00  0.00000000E+00  0.00000000E+00
  0.00000000E+00  0.00000000E+00  0.00000000E+00
  0.00000000E+00  0.00000000E+00  0.00000000E+00
