Sodilite                                
   1.00000000000000     
     9.3096364627612118    0.0000000000000000    0.0000000000000000
     0.0000000000000000    9.3007882421980259    0.0213982694435074
     0.0000000000000000    0.0214071407061186    9.3015148657437017
   O    Na   Al   Si   Cl   K 
    24     2     6     6     2     6
Direct
  0.1469203785545503  0.4712797605900911  0.1525296964525971
  0.8589038939868137  0.5270641544609110  0.1543931902314752
  0.8589038939868137  0.4729358455390886  0.8456068097685253
  0.1469203785545503  0.5287202394099094  0.8474703035474026
  0.1561614441314390  0.1435170147508693  0.4702519582218966
  0.1561614441314390  0.8564829852491305  0.5297480417781035
  0.8496574094107335  0.8550741316745801  0.4741683442181512
  0.8496574094107335  0.1449258683254195  0.5258316557818489
  0.4735174886368772  0.1556750251059089  0.1452840941536583
  0.5293164490059882  0.1511641783388782  0.8570040027477157
  0.4735174886368772  0.8443249748940911  0.8547159058463421
  0.5293164490059882  0.8488358216611219  0.1429959972522842
  0.9751359815198569  0.6350228277263811  0.6449818496183162
  0.0379102000204167  0.3474208368314403  0.6614655990529807
  0.9751359815198569  0.3649771722736186  0.3550181503816833
  0.0379102000204167  0.6525791631685597  0.3385344009470193
  0.6453886592744096  0.6526063906273637  0.9734551549346964
  0.3574627242414783  0.6538850651486722  0.0361078169783949
  0.3574627242414783  0.3461149348513279  0.9638921830216052
  0.6453886592744096  0.3473936093726363  0.0265448450653038
  0.6553328267720535  0.9724128514816286  0.6438434755156702
  0.6553328267720535  0.0275871485183709  0.3561565244843301
  0.3485521435344396  0.9651033330967027  0.3559519417967738
  0.3485521435344396  0.0348966669032970  0.6440480582032262
  0.2983237124145677  0.3027246827825910  0.6973504663658375
  0.2983237124145677  0.6972753172174094  0.3026495336341624
  0.2537555716413687  0.5000000000000000  0.0000000000000000
  0.7534206947375720  0.5000000000000000  0.0000000000000000
  0.0048894308096889  0.2505661209695534  0.5022076610558156
  0.0048894308096889  0.7494338790304460  0.4977923389441853
  0.5016883792011825  0.0001922342178046  0.2504051318698852
  0.5016883792011825 -0.0001922342178046  0.7495948681301152
  0.2530515812757536 -0.0000000000000000  0.5000000000000000
  0.7530552810902021 -0.0000000000000000  0.5000000000000000
  0.5016137252999289  0.2502409716015477 -0.0013504675209347
  0.5016137252999289  0.7497590283984522  0.0013504675209347
  0.0049599280793814  0.5033155794823075  0.2503057279020163
  0.0049599280793814  0.4966844205176918  0.7496942720979840
  0.0055292446743966 -0.0000000000000000  0.0000000000000000
  0.4387875585870105  0.5000000000000000  0.5000000000000000
  0.1852158048058988  0.1849233079971456  0.1843147777230893
  0.8185370908942047  0.8187348516346669  0.1820089544738694
  0.8185370908942047  0.1812651483653334  0.8179910455261306
  0.1852158048058988  0.8150766920028544  0.8156852222769112
  0.6717123634029378  0.6718485447227455  0.6724944426601107
  0.6717123634029378  0.3281514552772537  0.3275055573398890
 
  0.00000000E+00  0.00000000E+00  0.00000000E+00
  0.00000000E+00  0.00000000E+00  0.00000000E+00
  0.00000000E+00  0.00000000E+00  0.00000000E+00
  0.00000000E+00  0.00000000E+00  0.00000000E+00
  0.00000000E+00  0.00000000E+00  0.00000000E+00
  0.00000000E+00  0.00000000E+00  0.00000000E+00
  0.00000000E+00  0.00000000E+00  0.00000000E+00
  0.00000000E+00  0.00000000E+00  0.00000000E+00
  0.00000000E+00  0.00000000E+00  0.00000000E+00
  0.00000000E+00  0.00000000E+00  0.00000000E+00
  0.00000000E+00  0.00000000E+00  0.00000000E+00
  0.00000000E+00  0.00000000E+00  0.00000000E+00
  0.00000000E+00  0.00000000E+00  0.00000000E+00
  0.00000000E+00  0.00000000E+00  0.00000000E+00
  0.00000000E+00  0.00000000E+00  0.00000000E+00
  0.00000000E+00  0.00000000E+00  0.00000000E+00
  0.00000000E+00  0.00000000E+00  0.00000000E+00
  0.00000000E+00  0.00000000E+00  0.00000000E+00
  0.00000000E+00  0.00000000E+00  0.00000000E+00
  0.00000000E+00  0.00000000E+00  0.00000000E+00
  0.00000000E+00  0.00000000E+00  0.00000000E+00
  0.00000000E+00  0.00000000E+00  0.00000000E+00
  0.00000000E+00  0.00000000E+00  0.00000000E+00
  0.00000000E+00  0.00000000E+00  0.00000000E+00
  0.00000000E+00  0.00000000E+00  0.00000000E+00
  0.00000000E+00  0.00000000E+00  0.00000000E+00
  0.00000000E+00  0.00000000E+00  0.00000000E+00
  0.00000000E+00  0.00000000E+00  0.00000000E+00
  0.00000000E+00  0.00000000E+00  0.00000000E+00
  0.00000000E+00  0.00000000E+00  0.00000000E+00
  0.00000000E+00  0.00000000E+00  0.00000000E+00
  0.00000000E+00  0.00000000E+00  0.00000000E+00
  0.00000000E+00  0.00000000E+00  0.00000000E+00
  0.00000000E+00  0.00000000E+00  0.00000000E+00
  0.00000000E+00  0.00000000E+00  0.00000000E+00
  0.00000000E+00  0.00000000E+00  0.00000000E+00
  0.00000000E+00  0.00000000E+00  0.00000000E+00
  0.00000000E+00  0.00000000E+00  0.00000000E+00
  0.00000000E+00  0.00000000E+00  0.00000000E+00
  0.00000000E+00  0.00000000E+00  0.00000000E+00
  0.00000000E+00  0.00000000E+00  0.00000000E+00
  0.00000000E+00  0.00000000E+00  0.00000000E+00
  0.00000000E+00  0.00000000E+00  0.00000000E+00
  0.00000000E+00  0.00000000E+00  0.00000000E+00
  0.00000000E+00  0.00000000E+00  0.00000000E+00
  0.00000000E+00  0.00000000E+00  0.00000000E+00
