Sodilite                                
   1.00000000000000     
     9.1001724517778140    0.0113151934146842    0.0455319943776805
     0.0113327064916177    9.1014899372981350    0.0118506901671964
     0.0455224818612827    0.0118382429228129    9.0979904178078872
   O    Na   Al   Si   Cl   K 
    24     5     6     6     2     3
Direct
  0.1381706020919357  0.4575132850733614  0.1490717244487911
  0.8543078459282697  0.5576104493088156  0.1565415151858003
  0.8644491100722769  0.4482311556155685  0.8536454712593485
  0.1469303681580940  0.5569910554222602  0.8462939681228466
  0.1457127271506794  0.1387156818229562  0.4546782590460811
  0.1593633139123474  0.8558382398480197  0.5546760379180267
  0.8528808633123032  0.8662999038906329  0.4500169570046578
  0.8466501179192407  0.1487198901172443  0.5574902828039277
  0.4532845363312308  0.1496777619701208  0.1358944488988736
  0.5595520460821417  0.1601384532604612  0.8554079167104723
  0.4511840000129662  0.8576276749238336  0.8631588853227993
  0.5527789651945930  0.8480714961905914  0.1487985621147503
  0.9522095829236434  0.6433915671453199  0.6525262113493567
  0.0566699018026602  0.3617681175401613  0.6527793528831727
  0.9476769495936623  0.3605432901918104  0.3489720957448589
  0.0461638745944182  0.6450853262368654  0.3519004103463979
  0.6430164821810972  0.6550931364319660  0.9520686530534620
  0.3596951242558694  0.6557353436064791  0.0477738812593129
  0.3597332601254080  0.3514053844027606  0.9481371583244697
  0.6424185119495900  0.3540540850702523  0.0549905079011128
  0.6395878526081215  0.9574897867851390  0.6288265151647300
  0.6658843797930718  0.0594049987762477  0.3472814822866363
  0.3611974166298658  0.9614734184753424  0.3716501630073303
  0.3386749828775065  0.0579839821762533  0.6565742013974951
  0.8128562497619095  0.8166126417871831  0.1848848426871118
  0.8122984996238690  0.1898361000252269  0.8107499854848582
  0.1863015222325561  0.8163181712157094  0.8145247203978139
  0.3073050488578487  0.3093270374315022  0.6949099349988054
  0.6946449911903959  0.3105487775807722  0.3059572642337592
  0.2517497162669811  0.5050990352218062 -0.0005357268617387
  0.7521124800859278  0.5049130254036188  0.0024626639371856
 -0.0003436357701763  0.2545955956738077  0.5031655461310506
  0.0022455620182282  0.7557295451172668  0.5034980031216461
  0.5068367757970401  0.0064136968600492  0.2521034561565058
  0.4997117970753308  0.0091901459741083  0.7516151769810242
  0.2517900124981593  0.0049272623034845  0.5085873303996326
  0.7515547368376484  0.0088071116811633  0.4974582661849170
  0.5037874550198254  0.2546292162423729 -0.0009722514465474
  0.5024089804886738  0.7554709454378811  0.0027528136173763
 -0.0024060836747175  0.5054518799014673  0.2518126378318011
  0.0042453382284425  0.5035631790081392  0.7517746408707964
 -0.0351527807098345 -0.0298866799750479 -0.0355151284360365
  0.5015186873320012  0.4238931918042639  0.5013292210274890
  0.1576149389777595  0.1586612693728221  0.1585411167948144
  0.6606060789307218  0.6640580883814466  0.6601157262932332
  0.3401208134304143  0.6629772792684936  0.3416250980397897
 
  0.00000000E+00  0.00000000E+00  0.00000000E+00
  0.00000000E+00  0.00000000E+00  0.00000000E+00
  0.00000000E+00  0.00000000E+00  0.00000000E+00
  0.00000000E+00  0.00000000E+00  0.00000000E+00
  0.00000000E+00  0.00000000E+00  0.00000000E+00
  0.00000000E+00  0.00000000E+00  0.00000000E+00
  0.00000000E+00  0.00000000E+00  0.00000000E+00
  0.00000000E+00  0.00000000E+00  0.00000000E+00
  0.00000000E+00  0.00000000E+00  0.00000000E+00
  0.00000000E+00  0.00000000E+00  0.00000000E+00
  0.00000000E+00  0.00000000E+00  0.00000000E+00
  0.00000000E+00  0.00000000E+00  0.00000000E+00
  0.00000000E+00  0.00000000E+00  0.00000000E+00
  0.00000000E+00  0.00000000E+00  0.00000000E+00
  0.00000000E+00  0.00000000E+00  0.00000000E+00
  0.00000000E+00  0.00000000E+00  0.00000000E+00
  0.00000000E+00  0.00000000E+00  0.00000000E+00
  0.00000000E+00  0.00000000E+00  0.00000000E+00
  0.00000000E+00  0.00000000E+00  0.00000000E+00
  0.00000000E+00  0.00000000E+00  0.00000000E+00
  0.00000000E+00  0.00000000E+00  0.00000000E+00
  0.00000000E+00  0.00000000E+00  0.00000000E+00
  0.00000000E+00  0.00000000E+00  0.00000000E+00
  0.00000000E+00  0.00000000E+00  0.00000000E+00
  0.00000000E+00  0.00000000E+00  0.00000000E+00
  0.00000000E+00  0.00000000E+00  0.00000000E+00
  0.00000000E+00  0.00000000E+00  0.00000000E+00
  0.00000000E+00  0.00000000E+00  0.00000000E+00
  0.00000000E+00  0.00000000E+00  0.00000000E+00
  0.00000000E+00  0.00000000E+00  0.00000000E+00
  0.00000000E+00  0.00000000E+00  0.00000000E+00
  0.00000000E+00  0.00000000E+00  0.00000000E+00
  0.00000000E+00  0.00000000E+00  0.00000000E+00
  0.00000000E+00  0.00000000E+00  0.00000000E+00
  0.00000000E+00  0.00000000E+00  0.00000000E+00
  0.00000000E+00  0.00000000E+00  0.00000000E+00
  0.00000000E+00  0.00000000E+00  0.00000000E+00
  0.00000000E+00  0.00000000E+00  0.00000000E+00
  0.00000000E+00  0.00000000E+00  0.00000000E+00
  0.00000000E+00  0.00000000E+00  0.00000000E+00
  0.00000000E+00  0.00000000E+00  0.00000000E+00
  0.00000000E+00  0.00000000E+00  0.00000000E+00
  0.00000000E+00  0.00000000E+00  0.00000000E+00
  0.00000000E+00  0.00000000E+00  0.00000000E+00
  0.00000000E+00  0.00000000E+00  0.00000000E+00
  0.00000000E+00  0.00000000E+00  0.00000000E+00
