Sodilite                                
   1.00000000000000     
     9.1606753390722542    0.0064666934368323   -0.0256000118738610
     0.0064666934368323    9.1606753390722542    0.0256000118738610
    -0.0255878323248180    0.0255878323248180    9.1490563491461678
   O    Na   Al   Si   Cl   K 
    24     4     6     6     2     4
Direct
  0.1425031281664648  0.4588460378001850  0.1485497851286176
  0.8574236076938313  0.5499934218482665  0.1545317198034745
  0.8609711529893321  0.4482384183616052  0.8503212877421886
  0.1458586383509579  0.5397046949210739  0.8448016313953864
  0.1562824619088215  0.1402016441707858  0.4603779149098949
  0.1530695358074044  0.8546890697968033  0.5429332552923026
  0.8520649511899717  0.8567969806049213  0.4474591920420103
  0.8484485767527182  0.1398142449475353  0.5478146367376007
  0.4663514329667161  0.1379424896417360  0.1322327948987611
  0.5506569560066821  0.1599124825609944  0.8446549751841350
  0.4598099128015659  0.8574937795266188  0.8708798482990073
  0.5562165371365125  0.8337003694375278  0.1525230877596569
  0.9500065781517335  0.6425763923061687  0.6545317198034740
  0.0411539621998150  0.3574968718335355  0.6485497851286176
  0.9602953050789261  0.3541413616490422  0.3448016313953861
  0.0517615816383950  0.6390288470106679  0.3503212877421882
  0.6432030193950787  0.6479350488100283  0.9474591920420097
  0.3601857550524647  0.6515514232472819  0.0478146367376005
  0.3597983558292142  0.3437175380911784  0.9603779149098949
  0.6453109302031967  0.3469304641925959  0.0429332552923023
  0.6662996305624722  0.9437834628634875  0.6525230877596568
  0.6425062204733812  0.0401900871984342  0.3708798482990072
  0.3400875174390054  0.9493430439933179  0.3446549751841349
  0.3620575103582642  0.0336485670332839  0.6322327948987608
  0.8054141763240940  0.8028343697725049  0.1976187784661673
  0.8071117871372571  0.1918933853325644  0.8075060590527218
  0.6971656302274951  0.6945858236759060  0.6976187784661675
  0.3081066146674355  0.6928882128627429  0.3075060590527217
  0.2541208225371556  0.4985160879225101 -0.0008550263208505
  0.7530919144741900  0.4985303517123386  0.0000338789800513
  0.0014839120774898  0.2458791774628446  0.4991449736791495
  0.0014696482876615  0.7469080855258100  0.5000338789800511
  0.5032276841643341 -0.0097067523534130  0.2498557423207610
  0.5097067523534130 -0.0032276841643342  0.7498557423207612
  0.2538762724844292 -0.0062705423201856  0.4956445976526428
  0.7527403458561117 -0.0057565987927645  0.5039297495635052
  0.5062705423201858  0.2461237275155707 -0.0043554023473571
  0.5057565987927645  0.7472596541438883  0.0039297495635055
  0.0025596720124048  0.4998275540815523  0.2496202693222647
  0.0001724459184476  0.4974403279875951  0.7496202693222646
 -0.0718655543433992 -0.0043548267707668  0.0015785923975843
  0.5043548267707672  0.5718655543433993  0.5015785923975845
  0.1654715858958326  0.1630868701699859  0.1619185190201078
  0.1658155822253393  0.8352876481663484  0.8360687103520096
  0.3369131298300141  0.3345284141041675  0.6619185190201082
  0.6647123518336516  0.3341844177746606  0.3360687103520090
 
  0.00000000E+00  0.00000000E+00  0.00000000E+00
  0.00000000E+00  0.00000000E+00  0.00000000E+00
  0.00000000E+00  0.00000000E+00  0.00000000E+00
  0.00000000E+00  0.00000000E+00  0.00000000E+00
  0.00000000E+00  0.00000000E+00  0.00000000E+00
  0.00000000E+00  0.00000000E+00  0.00000000E+00
  0.00000000E+00  0.00000000E+00  0.00000000E+00
  0.00000000E+00  0.00000000E+00  0.00000000E+00
  0.00000000E+00  0.00000000E+00  0.00000000E+00
  0.00000000E+00  0.00000000E+00  0.00000000E+00
  0.00000000E+00  0.00000000E+00  0.00000000E+00
  0.00000000E+00  0.00000000E+00  0.00000000E+00
  0.00000000E+00  0.00000000E+00  0.00000000E+00
  0.00000000E+00  0.00000000E+00  0.00000000E+00
  0.00000000E+00  0.00000000E+00  0.00000000E+00
  0.00000000E+00  0.00000000E+00  0.00000000E+00
  0.00000000E+00  0.00000000E+00  0.00000000E+00
  0.00000000E+00  0.00000000E+00  0.00000000E+00
  0.00000000E+00  0.00000000E+00  0.00000000E+00
  0.00000000E+00  0.00000000E+00  0.00000000E+00
  0.00000000E+00  0.00000000E+00  0.00000000E+00
  0.00000000E+00  0.00000000E+00  0.00000000E+00
  0.00000000E+00  0.00000000E+00  0.00000000E+00
  0.00000000E+00  0.00000000E+00  0.00000000E+00
  0.00000000E+00  0.00000000E+00  0.00000000E+00
  0.00000000E+00  0.00000000E+00  0.00000000E+00
  0.00000000E+00  0.00000000E+00  0.00000000E+00
  0.00000000E+00  0.00000000E+00  0.00000000E+00
  0.00000000E+00  0.00000000E+00  0.00000000E+00
  0.00000000E+00  0.00000000E+00  0.00000000E+00
  0.00000000E+00  0.00000000E+00  0.00000000E+00
  0.00000000E+00  0.00000000E+00  0.00000000E+00
  0.00000000E+00  0.00000000E+00  0.00000000E+00
  0.00000000E+00  0.00000000E+00  0.00000000E+00
  0.00000000E+00  0.00000000E+00  0.00000000E+00
  0.00000000E+00  0.00000000E+00  0.00000000E+00
  0.00000000E+00  0.00000000E+00  0.00000000E+00
  0.00000000E+00  0.00000000E+00  0.00000000E+00
  0.00000000E+00  0.00000000E+00  0.00000000E+00
  0.00000000E+00  0.00000000E+00  0.00000000E+00
  0.00000000E+00  0.00000000E+00  0.00000000E+00
  0.00000000E+00  0.00000000E+00  0.00000000E+00
  0.00000000E+00  0.00000000E+00  0.00000000E+00
  0.00000000E+00  0.00000000E+00  0.00000000E+00
  0.00000000E+00  0.00000000E+00  0.00000000E+00
  0.00000000E+00  0.00000000E+00  0.00000000E+00
