Sodilite                                
   1.00000000000000     
     9.0537757506553778    0.0000000000000000    0.0000000000000000
     0.0000000000000000    9.0480693042992257   -0.0319792758607218
     0.0000000000000000   -0.0319702962080344    9.0451280874354492
   O    Na   Al   Si   Cl   K 
    24     6     6     6     2     2
Direct
  0.1389848951911533  0.4414558324647677  0.1503896008716774
  0.8574107595300930  0.5504628060350739  0.1505527838542703
  0.8574107595300930  0.4495371939649262  0.8494472161457300
  0.1389848951911533  0.5585441675352318  0.8496103991283226
  0.1476369269458197  0.1398054474576259  0.4417160445021455
  0.1476369269458197  0.8601945525423738  0.5582839554978545
  0.8464255955705587  0.8583346964166039  0.4493621032585551
  0.8464255955705587  0.1416653035833955  0.5506378967414450
  0.4384433068871469  0.1633245391177803  0.1536451035488743
  0.5447051227538579  0.1382854506970807  0.8717279679914210
  0.4384433068871469  0.8366754608822194  0.8463548964511256
  0.5447051227538579  0.8617145493029195  0.1282720320085791
  0.9413875578783328  0.6405122075241725  0.6497238282407751
  0.0561852832492539  0.3590507984225303  0.6517285090529357
  0.9413875578783328  0.3594877924758277  0.3502761717592248
  0.0561852832492539  0.6409492015774690  0.3482714909470645
  0.6391128915673476  0.6526011654952574  0.9447040093311445
  0.3580999783783776  0.6488449175067315  0.0589939613855660
  0.3580999783783776  0.3511550824932683  0.9410060386144338
  0.6391128915673476  0.3473988345047430  0.0552959906688558
  0.6476637192799805  0.9457252610496937  0.6423080155469948
  0.6476637192799805  0.0542747389503065  0.3576919844530052
  0.3469579086924280  0.9396376304053133  0.3610094826035937
  0.3469579086924280  0.0603623695946869  0.6389905173964058
  0.1899050755036766  0.1939944536514658  0.1942532112677831
  0.1899050755036766  0.8060055463485337  0.8057467887322169
  0.6772158871467265  0.6809251344662458  0.6796638717924479
  0.3162890510503203  0.3179439429869587  0.6830946041711521
  0.6772158871467265  0.3190748655337540  0.3203361282075521
  0.3162890510503203  0.6820560570130413  0.3169053958288479
  0.2473812777797855  0.5000000000000000 -0.0000000000000000
  0.7458866022432036  0.5000000000000000 -0.0000000000000000
 -0.0021746212960192  0.2503410282898983  0.4998921460015909
 -0.0021746212960192  0.7496589717101015  0.5001078539984093
  0.4928341949030910  0.0034825321118764  0.2500560544801690
  0.4928341949030910 -0.0034825321118764  0.7499439455198308
  0.2469489108817191 -0.0000000000000000  0.5000000000000000
  0.7459894354456547 -0.0000000000000000  0.5000000000000000
  0.4939333329206044  0.2500133250836630  0.0045846092238549
  0.4939333329206044  0.7499866749163371 -0.0045846092238549
 -0.0018170219508828  0.4986670827991031  0.2500792095625914
 -0.0018170219508828  0.5013329172008969  0.7499207904374087
  0.0818718276043832 -0.0000000000000000 -0.0000000000000000
  0.4949653766772389  0.5000000000000000  0.5000000000000000
  0.8392784404821410  0.8430877826605866  0.1563950358330714
  0.8392784404821410  0.1569122173394135  0.8436049641669287
 
  0.00000000E+00  0.00000000E+00  0.00000000E+00
  0.00000000E+00  0.00000000E+00  0.00000000E+00
  0.00000000E+00  0.00000000E+00  0.00000000E+00
  0.00000000E+00  0.00000000E+00  0.00000000E+00
  0.00000000E+00  0.00000000E+00  0.00000000E+00
  0.00000000E+00  0.00000000E+00  0.00000000E+00
  0.00000000E+00  0.00000000E+00  0.00000000E+00
  0.00000000E+00  0.00000000E+00  0.00000000E+00
  0.00000000E+00  0.00000000E+00  0.00000000E+00
  0.00000000E+00  0.00000000E+00  0.00000000E+00
  0.00000000E+00  0.00000000E+00  0.00000000E+00
  0.00000000E+00  0.00000000E+00  0.00000000E+00
  0.00000000E+00  0.00000000E+00  0.00000000E+00
  0.00000000E+00  0.00000000E+00  0.00000000E+00
  0.00000000E+00  0.00000000E+00  0.00000000E+00
  0.00000000E+00  0.00000000E+00  0.00000000E+00
  0.00000000E+00  0.00000000E+00  0.00000000E+00
  0.00000000E+00  0.00000000E+00  0.00000000E+00
  0.00000000E+00  0.00000000E+00  0.00000000E+00
  0.00000000E+00  0.00000000E+00  0.00000000E+00
  0.00000000E+00  0.00000000E+00  0.00000000E+00
  0.00000000E+00  0.00000000E+00  0.00000000E+00
  0.00000000E+00  0.00000000E+00  0.00000000E+00
  0.00000000E+00  0.00000000E+00  0.00000000E+00
  0.00000000E+00  0.00000000E+00  0.00000000E+00
  0.00000000E+00  0.00000000E+00  0.00000000E+00
  0.00000000E+00  0.00000000E+00  0.00000000E+00
  0.00000000E+00  0.00000000E+00  0.00000000E+00
  0.00000000E+00  0.00000000E+00  0.00000000E+00
  0.00000000E+00  0.00000000E+00  0.00000000E+00
  0.00000000E+00  0.00000000E+00  0.00000000E+00
  0.00000000E+00  0.00000000E+00  0.00000000E+00
  0.00000000E+00  0.00000000E+00  0.00000000E+00
  0.00000000E+00  0.00000000E+00  0.00000000E+00
  0.00000000E+00  0.00000000E+00  0.00000000E+00
  0.00000000E+00  0.00000000E+00  0.00000000E+00
  0.00000000E+00  0.00000000E+00  0.00000000E+00
  0.00000000E+00  0.00000000E+00  0.00000000E+00
  0.00000000E+00  0.00000000E+00  0.00000000E+00
  0.00000000E+00  0.00000000E+00  0.00000000E+00
  0.00000000E+00  0.00000000E+00  0.00000000E+00
  0.00000000E+00  0.00000000E+00  0.00000000E+00
  0.00000000E+00  0.00000000E+00  0.00000000E+00
  0.00000000E+00  0.00000000E+00  0.00000000E+00
  0.00000000E+00  0.00000000E+00  0.00000000E+00
  0.00000000E+00  0.00000000E+00  0.00000000E+00
