Sodilite                                
   1.00000000000000     
     9.2106836376015178    0.0130406222934331   -0.0061372767597845
     0.0130433180278608    9.2119926321939296   -0.0056480857259581
    -0.0061563815391345   -0.0056585951695216    9.2316566467866057
   O    Na   Al   Si   Cl   K 
    24     3     6     6     2     5
Direct
  0.1478418546910656  0.4500587732317590  0.1610007757287160
  0.8642459846092602  0.5364233472582866  0.1467968447942230
  0.8478747388337129  0.4651642680662786  0.8431311968472247
  0.1373275535122339  0.5305271452624831  0.8551599946600349
  0.1610957167760865  0.1506659429470187  0.4542089016816336
  0.1409134109610365  0.8649338311663179  0.5343787607152107
  0.8364430882629068  0.8470634529934418  0.4636917240082749
  0.8552729786322721  0.1336411179731430  0.5346757758927986
  0.4513829869911913  0.1569185357997699  0.1512322873731321
  0.5313737940792597  0.1462533935978884  0.8652561224741636
  0.4639628944849147  0.8382906854612351  0.8522800339808793
  0.5353813186485952  0.8537072540757387  0.1382439008469288
  0.9673341013149904  0.6411529240661744  0.6524509993029006
  0.0342306917280915  0.3525533469478628  0.6546124175067093
  0.9517551587108105  0.3588677893450124  0.3513419594481956
  0.0440537692393603  0.6427514607706134  0.3450030173981602
  0.6307696053556306  0.6401330180436360  0.9713255131163231
  0.3427929797685753  0.6621983484950763  0.0459099009110114
  0.3696818062319926  0.3598446347767785  0.9646608331469804
  0.6533187170111708  0.3325805725170312  0.0469716456324642
  0.6493186050036667  0.9682240580610235  0.6428406902047876
  0.6525541628216516  0.0438734282026470  0.3549081437560168
  0.3485836634065420  0.9510415526220266  0.3601258466115752
  0.3428076921978967  0.0343817629452349  0.6446316823030851
  0.2075048866051422  0.2065402464070081  0.2077127632268337
  0.6974817991867702  0.3019949167366984  0.3019250231511235
  0.3028941949658343  0.6972079609743662  0.3008541468445034
  0.2485566198409958  0.4995565174036495  0.0068932291168231
  0.7477177347066146  0.4934778795318900  0.0032891194746480
  0.0012484641902729  0.2483696470486390  0.4983612177970349
 -0.0033562745474569  0.7477092430905523  0.4979182206695735
  0.4967608490504404  0.0008928186129122  0.2517687113388797
  0.4960308520217023 -0.0027595358051902  0.7519989093862001
  0.2481648793979921  0.0003282931591841  0.4981345865329265
  0.7478871525050166 -0.0020955280945961  0.4986349754903614
  0.5004860071328360  0.2485299324300232  0.0072177434459176
  0.4932783061326345  0.7479592455189836  0.0027624937952620
  0.0015248353043211  0.4966614374156380  0.2513030366276454
 -0.0030863904600729  0.4968079868598469  0.7517048985126685
  0.0383713010331896  0.0381493926327284  0.0419442588745133
  0.4979992616006882  0.4977519645498765  0.4301992599799028
  0.8262729193173065  0.8266535240551013  0.1712258672124451
  0.8283941111623262  0.1692560876178961  0.8282297700670321
  0.1683702705508761  0.8279106582285141  0.8278200097845454
  0.6648632487629845  0.6655223105425783  0.6662216881122892
  0.3323176982666716  0.3323243564572211  0.6690411022174445
 
  0.00000000E+00  0.00000000E+00  0.00000000E+00
  0.00000000E+00  0.00000000E+00  0.00000000E+00
  0.00000000E+00  0.00000000E+00  0.00000000E+00
  0.00000000E+00  0.00000000E+00  0.00000000E+00
  0.00000000E+00  0.00000000E+00  0.00000000E+00
  0.00000000E+00  0.00000000E+00  0.00000000E+00
  0.00000000E+00  0.00000000E+00  0.00000000E+00
  0.00000000E+00  0.00000000E+00  0.00000000E+00
  0.00000000E+00  0.00000000E+00  0.00000000E+00
  0.00000000E+00  0.00000000E+00  0.00000000E+00
  0.00000000E+00  0.00000000E+00  0.00000000E+00
  0.00000000E+00  0.00000000E+00  0.00000000E+00
  0.00000000E+00  0.00000000E+00  0.00000000E+00
  0.00000000E+00  0.00000000E+00  0.00000000E+00
  0.00000000E+00  0.00000000E+00  0.00000000E+00
  0.00000000E+00  0.00000000E+00  0.00000000E+00
  0.00000000E+00  0.00000000E+00  0.00000000E+00
  0.00000000E+00  0.00000000E+00  0.00000000E+00
  0.00000000E+00  0.00000000E+00  0.00000000E+00
  0.00000000E+00  0.00000000E+00  0.00000000E+00
  0.00000000E+00  0.00000000E+00  0.00000000E+00
  0.00000000E+00  0.00000000E+00  0.00000000E+00
  0.00000000E+00  0.00000000E+00  0.00000000E+00
  0.00000000E+00  0.00000000E+00  0.00000000E+00
  0.00000000E+00  0.00000000E+00  0.00000000E+00
  0.00000000E+00  0.00000000E+00  0.00000000E+00
  0.00000000E+00  0.00000000E+00  0.00000000E+00
  0.00000000E+00  0.00000000E+00  0.00000000E+00
  0.00000000E+00  0.00000000E+00  0.00000000E+00
  0.00000000E+00  0.00000000E+00  0.00000000E+00
  0.00000000E+00  0.00000000E+00  0.00000000E+00
  0.00000000E+00  0.00000000E+00  0.00000000E+00
  0.00000000E+00  0.00000000E+00  0.00000000E+00
  0.00000000E+00  0.00000000E+00  0.00000000E+00
  0.00000000E+00  0.00000000E+00  0.00000000E+00
  0.00000000E+00  0.00000000E+00  0.00000000E+00
  0.00000000E+00  0.00000000E+00  0.00000000E+00
  0.00000000E+00  0.00000000E+00  0.00000000E+00
  0.00000000E+00  0.00000000E+00  0.00000000E+00
  0.00000000E+00  0.00000000E+00  0.00000000E+00
  0.00000000E+00  0.00000000E+00  0.00000000E+00
  0.00000000E+00  0.00000000E+00  0.00000000E+00
  0.00000000E+00  0.00000000E+00  0.00000000E+00
  0.00000000E+00  0.00000000E+00  0.00000000E+00
  0.00000000E+00  0.00000000E+00  0.00000000E+00
  0.00000000E+00  0.00000000E+00  0.00000000E+00
