Sodilite                                
   1.00000000000000     
     9.1606980364298831   -0.0255816976252872   -0.0064601378474271
    -0.0255695969597110    9.1490839415052303   -0.0255695969597110
    -0.0064601378474271   -0.0255816976252872    9.1606980364298831
   O    Na   Al   Si   Cl   K 
    24     4     6     6     2     4
Direct
  0.1398145212339180  0.4521866113075813  0.1515511359056485
  0.8567951130798470  0.5525389958431531  0.1479366122847204
  0.8546890123185235  0.4570691355775255  0.8469311228333998
  0.1402020307227228  0.5396205022057055  0.8437165924371968
  0.1599121916977498  0.1553438853956062  0.4493452258122986
  0.1379451621696045  0.8677653807315001  0.5336473196966873
  0.8337012309516046  0.8474768208296011  0.4437848512312426
  0.8574912312886970  0.1291226469134425  0.5401881139523609
  0.4482392842431759  0.1496800730291085  0.1390309803268370
  0.5397021567568744  0.1551983792112837  0.8541412487572914
  0.4588469024650204  0.8514476715901562  0.8574942382124560
  0.5499909176909242  0.8454694884060601  0.1425754848143930
  0.9493452258122990  0.6553438853956063  0.6599121916977500
  0.0336473196966871  0.3677653807315001  0.6379451621696042
  0.9437848512312427  0.3474768208296011  0.3337012309516044
  0.0401881139523609  0.6291226469134426  0.3574912312886975
  0.6390309803268373  0.6496800730291084  0.9482392842431755
  0.3541412487572916  0.6551983792112838  0.0397021567568743
  0.3574942382124558  0.3514476715901567  0.9588469024650207
  0.6425754848143930  0.3454694884060599  0.0499909176909246
  0.6515511359056491  0.9521866113075815  0.6398145212339181
  0.6479366122847203  0.0525389958431529  0.3567951130798470
  0.3469311228333997  0.9570691355775255  0.3546890123185234
  0.3437165924371970  0.0396205022057055  0.6402020307227226
  0.1918971433289005  0.1924928862619295  0.1928906234249022
  0.8028363816128272  0.8023815736729309  0.1945864747919754
  0.6928906234249023  0.6924928862619295  0.6918971433289005
  0.6945864747919752  0.3023815736729312  0.3028363816128278
  0.2458783446292007  0.5008553099395234 -0.0014845371037135
  0.7469066402778385  0.4999657790705724 -0.0014696313690061
 -0.0032273528451888  0.2501453491012964  0.4902935096743880
 -0.0097064903256121  0.7501453491012965  0.4967726471548112
  0.4985303686309943 -0.0000342209294276  0.2469066402778386
  0.4985154628962867  0.0008553099395232  0.7458783446292008
  0.2461237820499121  0.0043537943531118  0.4937297210214981
  0.7472602730352745 -0.0039289903610506  0.4942426367410993
  0.4974398547335644  0.2503805472921227 -0.0001720560606987
  0.4998279439393010  0.7503805472921228 -0.0025601452664354
 -0.0057573632589007  0.4960710096389495  0.2472602730352750
 -0.0062702789785017  0.5043537943531113  0.7461237820499126
 -0.0043529811558600 -0.0015772769276694  0.0718632878749365
  0.5718632878749367  0.4984227230723304  0.4956470188441402
  0.8352864476080364  0.1639325553761672  0.8341829635481602
  0.1630887200163378  0.8380788811803407  0.8345270732824190
  0.3345270732824191  0.3380788811803414  0.6630887200163379
  0.3341829635481603  0.6639325553761669  0.3352864476080366
 
  0.00000000E+00  0.00000000E+00  0.00000000E+00
  0.00000000E+00  0.00000000E+00  0.00000000E+00
  0.00000000E+00  0.00000000E+00  0.00000000E+00
  0.00000000E+00  0.00000000E+00  0.00000000E+00
  0.00000000E+00  0.00000000E+00  0.00000000E+00
  0.00000000E+00  0.00000000E+00  0.00000000E+00
  0.00000000E+00  0.00000000E+00  0.00000000E+00
  0.00000000E+00  0.00000000E+00  0.00000000E+00
  0.00000000E+00  0.00000000E+00  0.00000000E+00
  0.00000000E+00  0.00000000E+00  0.00000000E+00
  0.00000000E+00  0.00000000E+00  0.00000000E+00
  0.00000000E+00  0.00000000E+00  0.00000000E+00
  0.00000000E+00  0.00000000E+00  0.00000000E+00
  0.00000000E+00  0.00000000E+00  0.00000000E+00
  0.00000000E+00  0.00000000E+00  0.00000000E+00
  0.00000000E+00  0.00000000E+00  0.00000000E+00
  0.00000000E+00  0.00000000E+00  0.00000000E+00
  0.00000000E+00  0.00000000E+00  0.00000000E+00
  0.00000000E+00  0.00000000E+00  0.00000000E+00
  0.00000000E+00  0.00000000E+00  0.00000000E+00
  0.00000000E+00  0.00000000E+00  0.00000000E+00
  0.00000000E+00  0.00000000E+00  0.00000000E+00
  0.00000000E+00  0.00000000E+00  0.00000000E+00
  0.00000000E+00  0.00000000E+00  0.00000000E+00
  0.00000000E+00  0.00000000E+00  0.00000000E+00
  0.00000000E+00  0.00000000E+00  0.00000000E+00
  0.00000000E+00  0.00000000E+00  0.00000000E+00
  0.00000000E+00  0.00000000E+00  0.00000000E+00
  0.00000000E+00  0.00000000E+00  0.00000000E+00
  0.00000000E+00  0.00000000E+00  0.00000000E+00
  0.00000000E+00  0.00000000E+00  0.00000000E+00
  0.00000000E+00  0.00000000E+00  0.00000000E+00
  0.00000000E+00  0.00000000E+00  0.00000000E+00
  0.00000000E+00  0.00000000E+00  0.00000000E+00
  0.00000000E+00  0.00000000E+00  0.00000000E+00
  0.00000000E+00  0.00000000E+00  0.00000000E+00
  0.00000000E+00  0.00000000E+00  0.00000000E+00
  0.00000000E+00  0.00000000E+00  0.00000000E+00
  0.00000000E+00  0.00000000E+00  0.00000000E+00
  0.00000000E+00  0.00000000E+00  0.00000000E+00
  0.00000000E+00  0.00000000E+00  0.00000000E+00
  0.00000000E+00  0.00000000E+00  0.00000000E+00
  0.00000000E+00  0.00000000E+00  0.00000000E+00
  0.00000000E+00  0.00000000E+00  0.00000000E+00
  0.00000000E+00  0.00000000E+00  0.00000000E+00
  0.00000000E+00  0.00000000E+00  0.00000000E+00
