Sodilite                                
   1.00000000000000     
     9.1593363045704592    0.0238869077092185   -0.0063533185188115
     0.0238710117412217    9.1495903919818584    0.0238710117412217
    -0.0063533185188115    0.0238869077092185    9.1593363045704592
   O    Na   Al   Si   Cl   K 
    24     4     6     6     2     4
Direct
  0.1452463075375386  0.4570332329213996  0.1529923405388912
  0.8597759286075936  0.5397009842150567  0.1562956255892280
  0.8602070733444274  0.4522502621466624  0.8485058316379395
  0.1432263834777280  0.5524167636262072  0.8520769797624925
  0.1425324949373589  0.1291640526087897  0.4597960380473005
  0.1663059149647710  0.8474909773463212  0.5561861750006508
  0.8620509592207257  0.8677130060958519  0.4663168188478913
  0.8401517116028858  0.1552612227007747  0.5505984495946569
  0.4603103115671615  0.1550111162936463  0.1457219701522385
  0.5517658353966420  0.1499174332939425  0.8607822384633949
  0.4500622996692045  0.8456556785154329  0.8576111318098900
  0.5412548925111480  0.8513077357631577  0.1427155889164217
  0.9597960380473004  0.6291640526087898  0.6425324949373584
  0.0561861750006509  0.3474909773463212  0.6663059149647711
  0.9663168188478914  0.3677130060958519  0.3620509592207259
  0.0505984495946567  0.6552612227007748  0.3401517116028857
  0.6457219701522379  0.6550111162936464  0.9603103115671614
  0.3607822384633952  0.6499174332939425  0.0517658353966424
  0.3576111318098900  0.3456556785154323  0.9500622996692047
  0.6427155889164217  0.3513077357631581  0.0412548925111481
  0.6529923405388909  0.9570332329213992  0.6452463075375392
  0.6562956255892282  0.0397009842150566  0.3597759286075932
  0.3485058316379395  0.9522502621466629  0.3602070733444266
  0.3520769797624924  0.0524167636262069  0.6432263834777281
  0.8081910185580219  0.1924710327974012  0.8070393600195440
  0.1971964543507483  0.8023449721642892  0.8054013107181793
  0.3054013107181793  0.3023449721642890  0.6971964543507487
  0.3070393600195445  0.6924710327974012  0.3081910185580221
  0.2531022459067563  0.5000276517540821  0.0014707851294778
  0.7540990967576302  0.5008262489149906  0.0015013324331968
  0.0031919339956347  0.2501563875531342  0.5097016005382587
  0.0097016005382587  0.7501563875531343  0.5031919339956346
  0.5015013324331971  0.0008262489149904  0.2540990967576300
  0.5014707851294776  0.0000276517540822  0.7531022459067563
  0.2527081246519146 -0.0038928944529937  0.5057169039484951
  0.7538600668611145  0.0042815666246665  0.5062217155095599
  0.5026113359390560  0.2504033590420488  0.0001800506092494
  0.5001800506092491  0.7504033590420486  0.0026113359390560
  0.0062217155095598  0.5042815666246664  0.2538600668611144
  0.0057169039484954  0.4961071055470062  0.7527081246519145
  0.0044813697689251 -0.0015531351423732 -0.0719675328453796
  0.4280324671546204  0.4984468648576269  0.5044813697689252
  0.1647082170267101  0.1639293471854486  0.1657538657410948
  0.8370728158473106  0.8380829980320641  0.1652686273363209
  0.6657538657410951  0.6639293471854484  0.6647082170267103
  0.6652686273363210  0.3380829980320638  0.3370728158473104
 
  0.00000000E+00  0.00000000E+00  0.00000000E+00
  0.00000000E+00  0.00000000E+00  0.00000000E+00
  0.00000000E+00  0.00000000E+00  0.00000000E+00
  0.00000000E+00  0.00000000E+00  0.00000000E+00
  0.00000000E+00  0.00000000E+00  0.00000000E+00
  0.00000000E+00  0.00000000E+00  0.00000000E+00
  0.00000000E+00  0.00000000E+00  0.00000000E+00
  0.00000000E+00  0.00000000E+00  0.00000000E+00
  0.00000000E+00  0.00000000E+00  0.00000000E+00
  0.00000000E+00  0.00000000E+00  0.00000000E+00
  0.00000000E+00  0.00000000E+00  0.00000000E+00
  0.00000000E+00  0.00000000E+00  0.00000000E+00
  0.00000000E+00  0.00000000E+00  0.00000000E+00
  0.00000000E+00  0.00000000E+00  0.00000000E+00
  0.00000000E+00  0.00000000E+00  0.00000000E+00
  0.00000000E+00  0.00000000E+00  0.00000000E+00
  0.00000000E+00  0.00000000E+00  0.00000000E+00
  0.00000000E+00  0.00000000E+00  0.00000000E+00
  0.00000000E+00  0.00000000E+00  0.00000000E+00
  0.00000000E+00  0.00000000E+00  0.00000000E+00
  0.00000000E+00  0.00000000E+00  0.00000000E+00
  0.00000000E+00  0.00000000E+00  0.00000000E+00
  0.00000000E+00  0.00000000E+00  0.00000000E+00
  0.00000000E+00  0.00000000E+00  0.00000000E+00
  0.00000000E+00  0.00000000E+00  0.00000000E+00
  0.00000000E+00  0.00000000E+00  0.00000000E+00
  0.00000000E+00  0.00000000E+00  0.00000000E+00
  0.00000000E+00  0.00000000E+00  0.00000000E+00
  0.00000000E+00  0.00000000E+00  0.00000000E+00
  0.00000000E+00  0.00000000E+00  0.00000000E+00
  0.00000000E+00  0.00000000E+00  0.00000000E+00
  0.00000000E+00  0.00000000E+00  0.00000000E+00
  0.00000000E+00  0.00000000E+00  0.00000000E+00
  0.00000000E+00  0.00000000E+00  0.00000000E+00
  0.00000000E+00  0.00000000E+00  0.00000000E+00
  0.00000000E+00  0.00000000E+00  0.00000000E+00
  0.00000000E+00  0.00000000E+00  0.00000000E+00
  0.00000000E+00  0.00000000E+00  0.00000000E+00
  0.00000000E+00  0.00000000E+00  0.00000000E+00
  0.00000000E+00  0.00000000E+00  0.00000000E+00
  0.00000000E+00  0.00000000E+00  0.00000000E+00
  0.00000000E+00  0.00000000E+00  0.00000000E+00
  0.00000000E+00  0.00000000E+00  0.00000000E+00
  0.00000000E+00  0.00000000E+00  0.00000000E+00
  0.00000000E+00  0.00000000E+00  0.00000000E+00
  0.00000000E+00  0.00000000E+00  0.00000000E+00
