Sodilite                                
   1.00000000000000     
     9.0986267185597764   -0.0118355438862923    0.0463215105447847
    -0.0118483133146398    9.1022544882353351   -0.0113599033372541
     0.0463311311339021   -0.0113420546315527    9.1009123423512612
   O    Na   Al   Si   Cl   K 
    24     5     6     6     2     3
Direct
  0.1282973630694055  0.4614242213832234  0.1387710437074830
  0.8433504056376894  0.5579222891935640  0.1613968681931180
  0.8711667462744757  0.4575069476767280  0.8603924570520056
  0.1528076231033807  0.5593659324922715  0.8340609778078024
  0.1482109318728071  0.1451609307853861  0.4537797126803454
  0.1509387949910959  0.8606023566134848  0.5522772302389740
  0.8471403938666616  0.8616346478657415  0.4433242362873295
  0.8475870285473994  0.1432942153876314  0.5477305509865895
  0.4521840862335038  0.1558323767131063  0.1404220673289793
  0.5478605879480639  0.1549968791213177  0.8570729994881461
  0.4450523737215203  0.8539248428153431  0.8574865504078677
  0.5517989754627423  0.8514713357470413  0.1402164903770327
  0.9426838229643347  0.6486861705232927  0.6533667324059040
  0.0499742500543735  0.3662909052643560  0.6470861884718128
  0.9453376144352770  0.3558730135973983  0.3407068447058175
  0.0452852553177241  0.6387066365467908  0.3542714991297428
  0.6445925088419975  0.6601410552854665  0.9404880434951234
  0.3640954434571143  0.6496767491971299  0.0467318505145621
  0.3512499511627799  0.3480896038264886  0.9473402137859065
  0.6368333796776401  0.3576223673710616  0.0487204898327193
  0.6461843091516766  0.9483738362296322  0.6354064087423904
  0.6539459556550634  0.0569310078240602  0.3528796954312937
  0.3511648135106345  0.9576011447964409  0.3620411671135612
  0.3432563554120650  0.0576147624356488  0.6459035233025129
  0.8049805424387417  0.8092391833500563  0.1927046337154748
  0.1940071086296227  0.8104512391419580  0.8052129277639972
  0.6892899857234051  0.6899657388709282  0.6877211437720666
  0.3150008809353385  0.3165473680895919  0.6873076318944815
  0.6856429088313286  0.3162694315549222  0.3135705751497176
  0.2478840114899581  0.5064398470139412 -0.0068665347232124
  0.7483629701191955  0.5092052476968172  0.0003388646831923
 -0.0034681345741993  0.2557318047319253  0.4977560084111602
 -0.0031679120412179  0.7545967812731468  0.5003366903448916
  0.5006384486256652  0.0051692318017776  0.2482378151896684
  0.4974291815342922  0.0049228890695389  0.7478989024896444
  0.2481896586266487  0.0054870597363970  0.5024510893746948
  0.7482519134090579  0.0035497650169517  0.4956898495034050
  0.4972364146635188  0.2554532160661105 -0.0023425466718106
  0.5009526456311174  0.7546121256246363 -0.0037690002516421
 -0.0086097695623403  0.5049020255041144  0.2482102881246269
  0.0026133044845049  0.5087631207488895  0.7484659535820338
 -0.0013598747923679 -0.0760971867642732 -0.0015386772326999
  0.5354901308735212  0.4700901813923374  0.5351329545262861
  0.1583275085054178  0.1630476522378780  0.1597918973689545
  0.8398307177588760  0.1641291109747998  0.8393821637090314
  0.3414783883204864  0.6587799381749495  0.3424335277890174
 
  0.00000000E+00  0.00000000E+00  0.00000000E+00
  0.00000000E+00  0.00000000E+00  0.00000000E+00
  0.00000000E+00  0.00000000E+00  0.00000000E+00
  0.00000000E+00  0.00000000E+00  0.00000000E+00
  0.00000000E+00  0.00000000E+00  0.00000000E+00
  0.00000000E+00  0.00000000E+00  0.00000000E+00
  0.00000000E+00  0.00000000E+00  0.00000000E+00
  0.00000000E+00  0.00000000E+00  0.00000000E+00
  0.00000000E+00  0.00000000E+00  0.00000000E+00
  0.00000000E+00  0.00000000E+00  0.00000000E+00
  0.00000000E+00  0.00000000E+00  0.00000000E+00
  0.00000000E+00  0.00000000E+00  0.00000000E+00
  0.00000000E+00  0.00000000E+00  0.00000000E+00
  0.00000000E+00  0.00000000E+00  0.00000000E+00
  0.00000000E+00  0.00000000E+00  0.00000000E+00
  0.00000000E+00  0.00000000E+00  0.00000000E+00
  0.00000000E+00  0.00000000E+00  0.00000000E+00
  0.00000000E+00  0.00000000E+00  0.00000000E+00
  0.00000000E+00  0.00000000E+00  0.00000000E+00
  0.00000000E+00  0.00000000E+00  0.00000000E+00
  0.00000000E+00  0.00000000E+00  0.00000000E+00
  0.00000000E+00  0.00000000E+00  0.00000000E+00
  0.00000000E+00  0.00000000E+00  0.00000000E+00
  0.00000000E+00  0.00000000E+00  0.00000000E+00
  0.00000000E+00  0.00000000E+00  0.00000000E+00
  0.00000000E+00  0.00000000E+00  0.00000000E+00
  0.00000000E+00  0.00000000E+00  0.00000000E+00
  0.00000000E+00  0.00000000E+00  0.00000000E+00
  0.00000000E+00  0.00000000E+00  0.00000000E+00
  0.00000000E+00  0.00000000E+00  0.00000000E+00
  0.00000000E+00  0.00000000E+00  0.00000000E+00
  0.00000000E+00  0.00000000E+00  0.00000000E+00
  0.00000000E+00  0.00000000E+00  0.00000000E+00
  0.00000000E+00  0.00000000E+00  0.00000000E+00
  0.00000000E+00  0.00000000E+00  0.00000000E+00
  0.00000000E+00  0.00000000E+00  0.00000000E+00
  0.00000000E+00  0.00000000E+00  0.00000000E+00
  0.00000000E+00  0.00000000E+00  0.00000000E+00
  0.00000000E+00  0.00000000E+00  0.00000000E+00
  0.00000000E+00  0.00000000E+00  0.00000000E+00
  0.00000000E+00  0.00000000E+00  0.00000000E+00
  0.00000000E+00  0.00000000E+00  0.00000000E+00
  0.00000000E+00  0.00000000E+00  0.00000000E+00
  0.00000000E+00  0.00000000E+00  0.00000000E+00
  0.00000000E+00  0.00000000E+00  0.00000000E+00
  0.00000000E+00  0.00000000E+00  0.00000000E+00
