Sodilite                                
   1.00000000000000     
     9.1083490047325224    0.0160579194050481   -0.0150876638506039
     0.0160607495559960    9.0949479648315901    0.0139933234732816
    -0.0150916517265314    0.0139861068972371    9.0937887021273323
   O    Na   Al   Si   Cl   K 
    24     5     6     6     2     3
Direct
  0.1417274523169984  0.4527679050141078  0.1526269357496391
  0.8599778062035369  0.5564728844464518  0.1519162478461209
  0.8582380443364275  0.4450973975730379  0.8510433589082887
  0.1426647451287914  0.5432198344235514  0.8488866143894335
  0.1537047202623038  0.1416101540375702  0.4562602891012087
  0.1516783560725639  0.8557012254754052  0.5460823680496414
  0.8505093976191197  0.8594015128029684  0.4438774553444904
  0.8497510982297755  0.1393367189223390  0.5560865868805702
  0.4589448385211021  0.1369857476041112  0.1310083273510914
  0.5557254585089159  0.1627882031337454  0.8471910372546523
  0.4574088571822974  0.8593078829818693  0.8721950001050615
  0.5586837969252187  0.8355418166033928  0.1541554741984054
  0.9450289603254728  0.6472781227350980  0.6591649391200526
  0.0440724256320709  0.3636113638053927  0.6454053560543516
  0.9456909457417112  0.3520334740773923  0.3428121976286004
  0.0532433782803491  0.6343854669413392  0.3563948649743681
  0.6365498755451069  0.6437861779297767  0.9456014838297786
  0.3549456925921010  0.6567205678786510  0.0533761550753482
  0.3643595328801304  0.3503866137096950  0.9583652315881953
  0.6476731825237090  0.3445746053851851  0.0577548869874472
  0.6573869675497400  0.9414589070837575  0.6452001321075116
  0.6476184929392199  0.0557576719057787  0.3661619535855233
  0.3459229293643648  0.9470510295819989  0.3525766091283993
  0.3553570961669025  0.0404627557433509  0.6392992536771386
  0.8058491029550801  0.8030788993517474  0.1972842765409933
  0.8081879255193686  0.1933519833805821  0.8076879076164170
  0.6895856645918590  0.6882329191787721  0.6897945437934072
  0.6900977132281005  0.3112652565859775  0.3110885811096358
  0.3169725507164377  0.6865824905105911  0.3143389937765159
  0.2522430490675490  0.5005063952782920  0.0029467089550623
  0.7510463380755985  0.4981321089651454  0.0027992335834037
 -0.0013892779344945  0.2483398256512079  0.4991866104844755
 -0.0011729143689661  0.7482480453805171  0.5020709930900925
  0.5046512605243482 -0.0060894774213139  0.2516818604715720
  0.5074078997346118  0.0004304735644847  0.7518320355220557
  0.2522615796518143 -0.0036858341130002  0.4989570861797218
  0.7514108028739601 -0.0017469019104136  0.5025711344639934
  0.5072179760895553  0.2483456937807537 -0.0007903858902900
  0.5031233823632137  0.7486279566081364  0.0062285190723441
 -0.0003589900555231  0.4986160875652643  0.2513648534052198
 -0.0022277369824848  0.5000196564147988  0.7514535824517925
 -0.0790591940812221 -0.0024776562471048  0.0026808522544515
  0.5396424627487320  0.5335890766790683  0.4666037353222696
  0.1627639133036625  0.1588082672189021  0.1596931704129732
  0.1616062507131143  0.8396398372856365  0.8405201679421710
  0.3432761904177556  0.3424468564959905  0.6565627805064046
 
  0.00000000E+00  0.00000000E+00  0.00000000E+00
  0.00000000E+00  0.00000000E+00  0.00000000E+00
  0.00000000E+00  0.00000000E+00  0.00000000E+00
  0.00000000E+00  0.00000000E+00  0.00000000E+00
  0.00000000E+00  0.00000000E+00  0.00000000E+00
  0.00000000E+00  0.00000000E+00  0.00000000E+00
  0.00000000E+00  0.00000000E+00  0.00000000E+00
  0.00000000E+00  0.00000000E+00  0.00000000E+00
  0.00000000E+00  0.00000000E+00  0.00000000E+00
  0.00000000E+00  0.00000000E+00  0.00000000E+00
  0.00000000E+00  0.00000000E+00  0.00000000E+00
  0.00000000E+00  0.00000000E+00  0.00000000E+00
  0.00000000E+00  0.00000000E+00  0.00000000E+00
  0.00000000E+00  0.00000000E+00  0.00000000E+00
  0.00000000E+00  0.00000000E+00  0.00000000E+00
  0.00000000E+00  0.00000000E+00  0.00000000E+00
  0.00000000E+00  0.00000000E+00  0.00000000E+00
  0.00000000E+00  0.00000000E+00  0.00000000E+00
  0.00000000E+00  0.00000000E+00  0.00000000E+00
  0.00000000E+00  0.00000000E+00  0.00000000E+00
  0.00000000E+00  0.00000000E+00  0.00000000E+00
  0.00000000E+00  0.00000000E+00  0.00000000E+00
  0.00000000E+00  0.00000000E+00  0.00000000E+00
  0.00000000E+00  0.00000000E+00  0.00000000E+00
  0.00000000E+00  0.00000000E+00  0.00000000E+00
  0.00000000E+00  0.00000000E+00  0.00000000E+00
  0.00000000E+00  0.00000000E+00  0.00000000E+00
  0.00000000E+00  0.00000000E+00  0.00000000E+00
  0.00000000E+00  0.00000000E+00  0.00000000E+00
  0.00000000E+00  0.00000000E+00  0.00000000E+00
  0.00000000E+00  0.00000000E+00  0.00000000E+00
  0.00000000E+00  0.00000000E+00  0.00000000E+00
  0.00000000E+00  0.00000000E+00  0.00000000E+00
  0.00000000E+00  0.00000000E+00  0.00000000E+00
  0.00000000E+00  0.00000000E+00  0.00000000E+00
  0.00000000E+00  0.00000000E+00  0.00000000E+00
  0.00000000E+00  0.00000000E+00  0.00000000E+00
  0.00000000E+00  0.00000000E+00  0.00000000E+00
  0.00000000E+00  0.00000000E+00  0.00000000E+00
  0.00000000E+00  0.00000000E+00  0.00000000E+00
  0.00000000E+00  0.00000000E+00  0.00000000E+00
  0.00000000E+00  0.00000000E+00  0.00000000E+00
  0.00000000E+00  0.00000000E+00  0.00000000E+00
  0.00000000E+00  0.00000000E+00  0.00000000E+00
  0.00000000E+00  0.00000000E+00  0.00000000E+00
  0.00000000E+00  0.00000000E+00  0.00000000E+00
