Sodilite                                
   1.00000000000000     
     9.3432664459825983    0.0092600640412490    0.0092600619941633
     0.0092600619941633    9.3432664459825983   -0.0092600640412490
     0.0092600640412490   -0.0092600619941632    9.3432664459825983
   O    Na   Al   Si   Cl   K 
    24     1     6     6     2     7
Direct
  0.1434107987052917  0.4763753368999891  0.1569213075335410
  0.8556572896585400  0.5262701114477728  0.1530712203914737
  0.8530704924767969  0.4774033988208117  0.8470730183158823
  0.1424091877148913  0.5225602060249053  0.8487399128739208
  0.1529269816841172  0.1469295075232034  0.4774033988208117
  0.1512600871260796  0.8575908122851089  0.5225602060249053
  0.8430786924664594  0.8565892012947083  0.4763753368999891
  0.8469287796085261  0.1443427103414598  0.5262701114477728
  0.4737298885522273  0.1530712203914737  0.1443427103414598
  0.5236246631000113  0.1569213075335410  0.8565892012947083
  0.4774397939750947  0.8487399128739208  0.8575908122851089
  0.5225966011791888  0.8470730183158823  0.1469295075232034
  0.9755280901625968  0.6495315993165444  0.6586363464081166
  0.0228117454986529  0.3615012229727600  0.6500642245472941
  0.9669531943618209  0.3514075532044976  0.3423766919426899
  0.0218054460521296  0.6399092068214618  0.3526664551582152
  0.6384987770272403  0.6500642245472941  0.9771882545013474
  0.3504684006834553  0.6586363464081166  0.0244719098374032
  0.3600907931785381  0.3526664551582152  0.9781945539478705
  0.6485924467955028  0.3423766919426899  0.0330468056381792
  0.6473335448417841  0.9781945539478705  0.6399092068214618
  0.6576233080573096  0.0330468056381792  0.3514075532044976
  0.3499357754527057  0.9771882545013474  0.3615012229727600
  0.3413636535918832  0.0244719098374032  0.6495315993165444
  0.7052444156963373  0.2947555843036624  0.2947555843036623
  0.2484456068479723  0.5021284512152354  0.0026265418173887
  0.7481006637393063  0.4995027752564002  0.0024256212577744
 -0.0024256212577744  0.2518993362606936  0.4995027752564002
 -0.0026265418173887  0.7515543931520280  0.5021284512152354
  0.5004972247435997  0.0024256212577744  0.2518993362606936
  0.4978715487847647  0.0026265418173887  0.7515543931520280
  0.2485885639990255  0.0019304663649090  0.5025348578000353
  0.7483574274770822  0.0030596189967909  0.4989146224868904
  0.5010853775131090  0.2516425725229184  0.0030596189967909
  0.4974651421999642  0.7514114360009748  0.0019304663649090
 -0.0030596189967909  0.4989146224868904  0.2516425725229184
 -0.0019304663649090  0.5025348578000353  0.7514114360009748
 -0.0032882270201499  0.0032882270201499  0.0032882270201499
  0.5331247333802367  0.4668752666197633  0.4668752666197633
  0.1854313733254060  0.1852647839923686  0.1858813286456965
  0.8141186713543037  0.8145686266745937  0.1852647839923686
  0.8147352160076317  0.1858813286456965  0.8145686266745937
  0.1814616968944083  0.8185383031055921  0.8185383031055921
  0.6776929606331136  0.6782792679187889  0.6777493111713020
  0.3222506888286986  0.3223070393668865  0.6782792679187889
  0.3217207320812104  0.6777493111713020  0.3223070393668865
 
  0.00000000E+00  0.00000000E+00  0.00000000E+00
  0.00000000E+00  0.00000000E+00  0.00000000E+00
  0.00000000E+00  0.00000000E+00  0.00000000E+00
  0.00000000E+00  0.00000000E+00  0.00000000E+00
  0.00000000E+00  0.00000000E+00  0.00000000E+00
  0.00000000E+00  0.00000000E+00  0.00000000E+00
  0.00000000E+00  0.00000000E+00  0.00000000E+00
  0.00000000E+00  0.00000000E+00  0.00000000E+00
  0.00000000E+00  0.00000000E+00  0.00000000E+00
  0.00000000E+00  0.00000000E+00  0.00000000E+00
  0.00000000E+00  0.00000000E+00  0.00000000E+00
  0.00000000E+00  0.00000000E+00  0.00000000E+00
  0.00000000E+00  0.00000000E+00  0.00000000E+00
  0.00000000E+00  0.00000000E+00  0.00000000E+00
  0.00000000E+00  0.00000000E+00  0.00000000E+00
  0.00000000E+00  0.00000000E+00  0.00000000E+00
  0.00000000E+00  0.00000000E+00  0.00000000E+00
  0.00000000E+00  0.00000000E+00  0.00000000E+00
  0.00000000E+00  0.00000000E+00  0.00000000E+00
  0.00000000E+00  0.00000000E+00  0.00000000E+00
  0.00000000E+00  0.00000000E+00  0.00000000E+00
  0.00000000E+00  0.00000000E+00  0.00000000E+00
  0.00000000E+00  0.00000000E+00  0.00000000E+00
  0.00000000E+00  0.00000000E+00  0.00000000E+00
  0.00000000E+00  0.00000000E+00  0.00000000E+00
  0.00000000E+00  0.00000000E+00  0.00000000E+00
  0.00000000E+00  0.00000000E+00  0.00000000E+00
  0.00000000E+00  0.00000000E+00  0.00000000E+00
  0.00000000E+00  0.00000000E+00  0.00000000E+00
  0.00000000E+00  0.00000000E+00  0.00000000E+00
  0.00000000E+00  0.00000000E+00  0.00000000E+00
  0.00000000E+00  0.00000000E+00  0.00000000E+00
  0.00000000E+00  0.00000000E+00  0.00000000E+00
  0.00000000E+00  0.00000000E+00  0.00000000E+00
  0.00000000E+00  0.00000000E+00  0.00000000E+00
  0.00000000E+00  0.00000000E+00  0.00000000E+00
  0.00000000E+00  0.00000000E+00  0.00000000E+00
  0.00000000E+00  0.00000000E+00  0.00000000E+00
  0.00000000E+00  0.00000000E+00  0.00000000E+00
  0.00000000E+00  0.00000000E+00  0.00000000E+00
  0.00000000E+00  0.00000000E+00  0.00000000E+00
  0.00000000E+00  0.00000000E+00  0.00000000E+00
  0.00000000E+00  0.00000000E+00  0.00000000E+00
  0.00000000E+00  0.00000000E+00  0.00000000E+00
  0.00000000E+00  0.00000000E+00  0.00000000E+00
  0.00000000E+00  0.00000000E+00  0.00000000E+00
