Sodilite                                
   1.00000000000000     
     9.3433420685214870    0.0093161543715746    0.0093161585643607
     0.0093161585643607    9.3433420685214870   -0.0093161543715746
     0.0093161543715746   -0.0093161585643607    9.3433420685214870
   O    Na   Al   Si   Cl   K 
    24     1     6     6     2     7
Direct
  0.1385061304044287  0.4772006249251083  0.1500732370334893
  0.8504770995785760  0.5244597574786651  0.1586323243550392
  0.8600876849018367  0.4782049864000654  0.8526623518153901
  0.1485878273777862  0.5330442756812428  0.8423800376538693
  0.1473376481846097  0.1399123150981631  0.4782049864000654
  0.1576199623461307  0.8514121726222135  0.5330442756812428
  0.8499267629665105  0.8614938695955711  0.4772006249251083
  0.8413676756449608  0.1495229004214242  0.5244597574786651
  0.4755402425213348  0.1586323243550392  0.1495229004214242
  0.5227993750748918  0.1500732370334893  0.8614938695955711
  0.4669557243187570  0.8423800376538693  0.8514121726222135
  0.5217950135999345  0.8526623518153901  0.1399123150981631
  0.9737374932707438  0.6443484736147251  0.6530757507921104
  0.0236141483794684  0.3565953829312976  0.6569201201046838
  0.9774537557520029  0.3575937902219620  0.3487449234151889
  0.0225910984319400  0.6469300032951514  0.3470762652544036
  0.6434046170687021  0.6569201201046838  0.9763858516205316
  0.3556515263852746  0.6530757507921104  0.0262625067292564
  0.3530699967048483  0.3470762652544036  0.9774089015680602
  0.6424062097780382  0.3487449234151889  0.0225462442479964
  0.6529237347455965  0.9774089015680602  0.6469300032951514
  0.6512550765848114  0.0225462442479964  0.3575937902219620
  0.3430798798953156  0.9763858516205316  0.3565953829312976
  0.3469242492078903  0.0262625067292564  0.6443484736147251
  0.2052257534206132  0.7947742465793869  0.7947742465793869
  0.2480994920126710  0.5024291196717097 -0.0004953612578081
  0.7484444822947149  0.5026289545418309  0.0021283199030811
 -0.0021283199030811  0.2515555177052848  0.5026289545418309
  0.0004953612578081  0.7519005079873283  0.5024291196717097
  0.4973710454581692  0.0021283199030811  0.2515555177052848
  0.4975708803282901 -0.0004953612578081  0.7519005079873283
  0.2483546618200361 -0.0010822375948806  0.5030621514379642
  0.7485852307323699  0.0025294983156404  0.5019321008705598
  0.4980678991294405  0.2514147692676302  0.0025294983156404
  0.4969378485620360  0.7516453381799636 -0.0010822375948805
 -0.0025294983156404  0.5019321008705598  0.2514147692676302
  0.0010822375948805  0.5030621514379642  0.7516453381799636
  0.0331019774670785 -0.0331019774670785 -0.0331019774670785
  0.4967649591225717  0.5032350408774287  0.5032350408774287
  0.1777016436891981  0.1777640584460957  0.1782967062964839
  0.8217032937035165  0.8222983563108021  0.1777640584460957
  0.8222359415539044  0.1782967062964839  0.8222983563108021
  0.6854213957661853  0.6858689439027786  0.6852541472722209
  0.3147458527277788  0.3145786042338147  0.6858689439027786
  0.6815038723558468  0.3184961276441530  0.3184961276441530
  0.3141310560972214  0.6852541472722209  0.3145786042338147
 
  0.00000000E+00  0.00000000E+00  0.00000000E+00
  0.00000000E+00  0.00000000E+00  0.00000000E+00
  0.00000000E+00  0.00000000E+00  0.00000000E+00
  0.00000000E+00  0.00000000E+00  0.00000000E+00
  0.00000000E+00  0.00000000E+00  0.00000000E+00
  0.00000000E+00  0.00000000E+00  0.00000000E+00
  0.00000000E+00  0.00000000E+00  0.00000000E+00
  0.00000000E+00  0.00000000E+00  0.00000000E+00
  0.00000000E+00  0.00000000E+00  0.00000000E+00
  0.00000000E+00  0.00000000E+00  0.00000000E+00
  0.00000000E+00  0.00000000E+00  0.00000000E+00
  0.00000000E+00  0.00000000E+00  0.00000000E+00
  0.00000000E+00  0.00000000E+00  0.00000000E+00
  0.00000000E+00  0.00000000E+00  0.00000000E+00
  0.00000000E+00  0.00000000E+00  0.00000000E+00
  0.00000000E+00  0.00000000E+00  0.00000000E+00
  0.00000000E+00  0.00000000E+00  0.00000000E+00
  0.00000000E+00  0.00000000E+00  0.00000000E+00
  0.00000000E+00  0.00000000E+00  0.00000000E+00
  0.00000000E+00  0.00000000E+00  0.00000000E+00
  0.00000000E+00  0.00000000E+00  0.00000000E+00
  0.00000000E+00  0.00000000E+00  0.00000000E+00
  0.00000000E+00  0.00000000E+00  0.00000000E+00
  0.00000000E+00  0.00000000E+00  0.00000000E+00
  0.00000000E+00  0.00000000E+00  0.00000000E+00
  0.00000000E+00  0.00000000E+00  0.00000000E+00
  0.00000000E+00  0.00000000E+00  0.00000000E+00
  0.00000000E+00  0.00000000E+00  0.00000000E+00
  0.00000000E+00  0.00000000E+00  0.00000000E+00
  0.00000000E+00  0.00000000E+00  0.00000000E+00
  0.00000000E+00  0.00000000E+00  0.00000000E+00
  0.00000000E+00  0.00000000E+00  0.00000000E+00
  0.00000000E+00  0.00000000E+00  0.00000000E+00
  0.00000000E+00  0.00000000E+00  0.00000000E+00
  0.00000000E+00  0.00000000E+00  0.00000000E+00
  0.00000000E+00  0.00000000E+00  0.00000000E+00
  0.00000000E+00  0.00000000E+00  0.00000000E+00
  0.00000000E+00  0.00000000E+00  0.00000000E+00
  0.00000000E+00  0.00000000E+00  0.00000000E+00
  0.00000000E+00  0.00000000E+00  0.00000000E+00
  0.00000000E+00  0.00000000E+00  0.00000000E+00
  0.00000000E+00  0.00000000E+00  0.00000000E+00
  0.00000000E+00  0.00000000E+00  0.00000000E+00
  0.00000000E+00  0.00000000E+00  0.00000000E+00
  0.00000000E+00  0.00000000E+00  0.00000000E+00
  0.00000000E+00  0.00000000E+00  0.00000000E+00
