Sodilite                                
   1.00000000000000     
     9.2716245920399967    0.0097781191215652   -0.0097781230204392
     0.0097781230204392    9.2716245920399967   -0.0097781191215652
    -0.0097781191215652   -0.0097781230204392    9.2716245920399967
   O    Na   Al   Si   Cl   K 
    24     3     6     6     2     5
Direct
  0.1468519729429036  0.4598671257896309  0.1581136338841793
  0.8596967129618118  0.5289312672675059  0.1499720766501849
  0.8512556417421052  0.4608618475413608  0.8443551829273249
  0.1386709554751469  0.5365511056056783  0.8512067005663605
  0.1487932994336395  0.1386709554751469  0.4634488943943213
  0.1556448170726751  0.8512556417421052  0.5391381524586396
  0.8500279233498151  0.8596967129618118  0.4710687327324944
  0.8418863661158206  0.1468519729429036  0.5401328742103687
  0.4608618475413608  0.1556448170726751  0.1487443582578950
  0.5365511056056783  0.1487932994336395  0.8613290445248526
  0.4598671257896308  0.8418863661158206  0.8531480270570968
  0.5289312672675059  0.8500279233498151  0.1403032870381883
  0.9669962815266924  0.6415128878242252  0.6539607268246697
  0.0308642237418234  0.3543140019409114  0.6550914498233334
  0.9685288845394702  0.3544816639772101  0.3494797437570952
  0.0293067863092373  0.6429695620522915  0.3469669941664130
  0.6429695620522915  0.6530330058335875  0.9706932136907630
  0.3544816639772101  0.6505202562429049  0.0314711154605297
  0.3543140019409114  0.3449085501766666  0.9691357762581767
  0.6415128878242252  0.3460392731753302  0.0330037184733078
  0.6505202562429049  0.9685288845394702  0.6455183360227895
  0.6530330058335875  0.0293067863092373  0.3570304379477087
  0.3460392731753302  0.9669962815266924  0.3584871121757748
  0.3449085501766666  0.0308642237418234  0.6456859980590887
  0.1969303389597502  0.1968461778356193  0.1896548805401306
  0.8103451194598699  0.1969303389597502  0.8031538221643806
  0.1968461778356193  0.8103451194598699  0.8030696610402503
  0.2474306649495624  0.4977926870605269  0.0017927773045313
  0.7486321665839109  0.4976986160288528 -0.0000478756543633
 -0.0017927773045313  0.2474306649495624  0.5022073129394728
  0.0000478756543633  0.7486321665839109  0.5023013839711469
  0.4976986160288528  0.0000478756543633  0.2513678334160891
  0.4977926870605269 -0.0017927773045313  0.7525693350504372
  0.2483166609004109 -0.0026618609739605  0.5018368458467989
  0.7487781736372912  0.0006210906083309  0.5032157515050962
  0.4981631541532014  0.2483166609004109  0.0026618609739605
  0.4967842484949031  0.7487781736372912 -0.0006210906083309
  0.0006210906083309  0.4967842484949031  0.2512218263627086
 -0.0026618609739605  0.4981631541532014  0.7516833390995883
  0.0288860128549545  0.0288860128549545 -0.0288860128549545
  0.4964316312401405  0.4964316312401405  0.5035683687598596
  0.8334564092339621  0.8334564092339621  0.1665435907660376
  0.6804403400177407  0.6814276137596886  0.6816602586531959
  0.3145715028601629  0.3145715028601629  0.6854284971398372
  0.6814276137596886  0.3183397413468050  0.3195596599822593
  0.3183397413468050  0.6804403400177407  0.3185723862403115
 
  0.00000000E+00  0.00000000E+00  0.00000000E+00
  0.00000000E+00  0.00000000E+00  0.00000000E+00
  0.00000000E+00  0.00000000E+00  0.00000000E+00
  0.00000000E+00  0.00000000E+00  0.00000000E+00
  0.00000000E+00  0.00000000E+00  0.00000000E+00
  0.00000000E+00  0.00000000E+00  0.00000000E+00
  0.00000000E+00  0.00000000E+00  0.00000000E+00
  0.00000000E+00  0.00000000E+00  0.00000000E+00
  0.00000000E+00  0.00000000E+00  0.00000000E+00
  0.00000000E+00  0.00000000E+00  0.00000000E+00
  0.00000000E+00  0.00000000E+00  0.00000000E+00
  0.00000000E+00  0.00000000E+00  0.00000000E+00
  0.00000000E+00  0.00000000E+00  0.00000000E+00
  0.00000000E+00  0.00000000E+00  0.00000000E+00
  0.00000000E+00  0.00000000E+00  0.00000000E+00
  0.00000000E+00  0.00000000E+00  0.00000000E+00
  0.00000000E+00  0.00000000E+00  0.00000000E+00
  0.00000000E+00  0.00000000E+00  0.00000000E+00
  0.00000000E+00  0.00000000E+00  0.00000000E+00
  0.00000000E+00  0.00000000E+00  0.00000000E+00
  0.00000000E+00  0.00000000E+00  0.00000000E+00
  0.00000000E+00  0.00000000E+00  0.00000000E+00
  0.00000000E+00  0.00000000E+00  0.00000000E+00
  0.00000000E+00  0.00000000E+00  0.00000000E+00
  0.00000000E+00  0.00000000E+00  0.00000000E+00
  0.00000000E+00  0.00000000E+00  0.00000000E+00
  0.00000000E+00  0.00000000E+00  0.00000000E+00
  0.00000000E+00  0.00000000E+00  0.00000000E+00
  0.00000000E+00  0.00000000E+00  0.00000000E+00
  0.00000000E+00  0.00000000E+00  0.00000000E+00
  0.00000000E+00  0.00000000E+00  0.00000000E+00
  0.00000000E+00  0.00000000E+00  0.00000000E+00
  0.00000000E+00  0.00000000E+00  0.00000000E+00
  0.00000000E+00  0.00000000E+00  0.00000000E+00
  0.00000000E+00  0.00000000E+00  0.00000000E+00
  0.00000000E+00  0.00000000E+00  0.00000000E+00
  0.00000000E+00  0.00000000E+00  0.00000000E+00
  0.00000000E+00  0.00000000E+00  0.00000000E+00
  0.00000000E+00  0.00000000E+00  0.00000000E+00
  0.00000000E+00  0.00000000E+00  0.00000000E+00
  0.00000000E+00  0.00000000E+00  0.00000000E+00
  0.00000000E+00  0.00000000E+00  0.00000000E+00
  0.00000000E+00  0.00000000E+00  0.00000000E+00
  0.00000000E+00  0.00000000E+00  0.00000000E+00
  0.00000000E+00  0.00000000E+00  0.00000000E+00
  0.00000000E+00  0.00000000E+00  0.00000000E+00
