Sodilite                                
   1.00000000000000     
     9.2124521942328226   -0.0130120003545508   -0.0057429347525874
    -0.0130092229846178    9.2111959715008478    0.0061952688481819
    -0.0057538424412985    0.0062147295442417    9.2317078142617017
   O    Na   Al   Si   Cl   K 
    24     3     6     6     2     5
Direct
  0.1411398060467588  0.4517653161683333  0.1486821520397113
  0.8572523594430503  0.5440544077534395  0.1549876057213488
  0.8588454966356945  0.4672833784401443  0.8475410592538093
  0.1474133755883977  0.5342689770581469  0.8453916943236673
  0.1673980168638115  0.1533116863470150  0.4530137563714237
  0.1401803218662275  0.8696736262581808  0.5353472569240517
  0.8378134282574086  0.8428252872005857  0.4540941786771186
  0.8598564902982130  0.1307724688676262  0.5287281113101722
  0.4561409583171966  0.1525386778556281  0.1450611364050372
  0.5318273124367953  0.1493472893117690  0.8571480594135974
  0.4655751991292849  0.8427970807609052  0.8553773740643971
  0.5489453800689326  0.8485707306539747  0.1398770594756606
  0.9694451083798745  0.6373218133148408  0.6448455289775957
  0.0348826365255825  0.3478712353425578  0.6568912522690772
  0.9635441157405806  0.3642543167252467  0.3531971791898436
  0.0499163186310780  0.6478617267418788  0.3389809797741302
  0.6350620479520891  0.6409289834076848  0.9655705633098037
  0.3493315537131773  0.6611009319928893  0.0457676284317813
  0.3663577105616985  0.3552660406231984  0.9652905921729715
  0.6529305250565478  0.3364364435404493  0.0363382547890380
  0.6617225589243693  0.9639119168557456  0.6477543304438732
  0.6462908645268867  0.0353960646869398  0.3617818924812187
  0.3430647159379178  0.9514220194877463  0.3487569705091219
  0.3537268940062518  0.0314179359204628  0.6347437033068938
  0.1979968777297302  0.1974370279986041  0.1980546690050365
  0.8028311401194165  0.8029080495387534  0.1991319395825569
  0.2934415782164355  0.7075240725321562  0.2922926852860905
  0.2516454297940866  0.5012443631252369  0.0016499445238730
  0.7522737423290593  0.4966433945654853  0.0020665013787018
  0.0065097643896171  0.2477305021544435  0.4967333011520208
  0.0004484724870399  0.7485504868927355  0.4931178067295853
  0.4991141546721496 -0.0032412129866919  0.2482234031458642
  0.5027655715203974 -0.0039563988458687  0.7479734486016192
  0.2514637945737657  0.0005037716887109  0.4927981088306794
  0.7520356095484009 -0.0067089972540032  0.4972750541068059
  0.5020966016172073  0.2478987617981736  0.0013519031956242
  0.4996567763367060  0.7481567773111730  0.0018570038339783
  0.0033291116800643  0.5015363398514533  0.2487008172196815
  0.0031778914466385  0.4969095247646208  0.7482994450336968
  0.0023147135706572 -0.0020687555938251  0.0698700076408486
  0.4618671448884656  0.5383559012440732  0.4579754849466814
  0.8345055362143764  0.1648380566661506  0.8338598972595882
  0.1676846519277866  0.8323037436242150  0.8309794487834670
  0.6720696430390403  0.6683782027104958  0.6721283868732786
  0.3307448931783628  0.3284170620522390  0.6717360183607652
  0.6733637058127723  0.3262409708462777  0.3287564048742134
 
  0.00000000E+00  0.00000000E+00  0.00000000E+00
  0.00000000E+00  0.00000000E+00  0.00000000E+00
  0.00000000E+00  0.00000000E+00  0.00000000E+00
  0.00000000E+00  0.00000000E+00  0.00000000E+00
  0.00000000E+00  0.00000000E+00  0.00000000E+00
  0.00000000E+00  0.00000000E+00  0.00000000E+00
  0.00000000E+00  0.00000000E+00  0.00000000E+00
  0.00000000E+00  0.00000000E+00  0.00000000E+00
  0.00000000E+00  0.00000000E+00  0.00000000E+00
  0.00000000E+00  0.00000000E+00  0.00000000E+00
  0.00000000E+00  0.00000000E+00  0.00000000E+00
  0.00000000E+00  0.00000000E+00  0.00000000E+00
  0.00000000E+00  0.00000000E+00  0.00000000E+00
  0.00000000E+00  0.00000000E+00  0.00000000E+00
  0.00000000E+00  0.00000000E+00  0.00000000E+00
  0.00000000E+00  0.00000000E+00  0.00000000E+00
  0.00000000E+00  0.00000000E+00  0.00000000E+00
  0.00000000E+00  0.00000000E+00  0.00000000E+00
  0.00000000E+00  0.00000000E+00  0.00000000E+00
  0.00000000E+00  0.00000000E+00  0.00000000E+00
  0.00000000E+00  0.00000000E+00  0.00000000E+00
  0.00000000E+00  0.00000000E+00  0.00000000E+00
  0.00000000E+00  0.00000000E+00  0.00000000E+00
  0.00000000E+00  0.00000000E+00  0.00000000E+00
  0.00000000E+00  0.00000000E+00  0.00000000E+00
  0.00000000E+00  0.00000000E+00  0.00000000E+00
  0.00000000E+00  0.00000000E+00  0.00000000E+00
  0.00000000E+00  0.00000000E+00  0.00000000E+00
  0.00000000E+00  0.00000000E+00  0.00000000E+00
  0.00000000E+00  0.00000000E+00  0.00000000E+00
  0.00000000E+00  0.00000000E+00  0.00000000E+00
  0.00000000E+00  0.00000000E+00  0.00000000E+00
  0.00000000E+00  0.00000000E+00  0.00000000E+00
  0.00000000E+00  0.00000000E+00  0.00000000E+00
  0.00000000E+00  0.00000000E+00  0.00000000E+00
  0.00000000E+00  0.00000000E+00  0.00000000E+00
  0.00000000E+00  0.00000000E+00  0.00000000E+00
  0.00000000E+00  0.00000000E+00  0.00000000E+00
  0.00000000E+00  0.00000000E+00  0.00000000E+00
  0.00000000E+00  0.00000000E+00  0.00000000E+00
  0.00000000E+00  0.00000000E+00  0.00000000E+00
  0.00000000E+00  0.00000000E+00  0.00000000E+00
  0.00000000E+00  0.00000000E+00  0.00000000E+00
  0.00000000E+00  0.00000000E+00  0.00000000E+00
  0.00000000E+00  0.00000000E+00  0.00000000E+00
  0.00000000E+00  0.00000000E+00  0.00000000E+00
