Sodilite                                
   1.00000000000000     
     9.1019895585751467   -0.0109915566699071    0.0116398998331227
    -0.0109770475335227    9.0995366624532252   -0.0439614263061758
     0.0116291124879786   -0.0439503484365588    9.0976381288066506
   O    Na   Al   Si   Cl   K 
    24     5     6     6     2     3
Direct
  0.1394434583441311  0.4476761282405823  0.1510156628114745
  0.8548871877743609  0.5461652887638464  0.1481095803198704
  0.8566187796408036  0.4521766852009091  0.8474605909830677
  0.1382312909736639  0.5566967101561924  0.8472162591508927
  0.1459542936514147  0.1424581414609500  0.4450219465178441
  0.1485910555332081  0.8597134286741571  0.5518717867846130
  0.8442446802676274  0.8596789129974821  0.4522295593010006
  0.8449165160611298  0.1430005290506801  0.5479572863780304
  0.4405684236324206  0.1659265118085437  0.1527775280441857
  0.5425175280110601  0.1396031460762562  0.8711806034211427
  0.4420441542703873  0.8386602417817650  0.8433713264498944
  0.5384793410816140  0.8612028219926203  0.1283114692610161
  0.9430582849633362  0.6469868386045062  0.6537440626640956
  0.0517343768072751  0.3644708323065695  0.6463241362755217
  0.9424371904822282  0.3542564645568643  0.3434475588928977
  0.0424458585774510  0.6381271920906181  0.3509398827044594
  0.6441304155493559  0.6593242574160102  0.9453217339046108
  0.3612957129066876  0.6456765395346591  0.0452952655717954
  0.3512843690942391  0.3466767752430447  0.9425668610147473
  0.6336531685791132  0.3529227601488251  0.0499724541750881
  0.6423244394064421  0.9512073256038659  0.6368148618133883
  0.6518927065541211  0.0527601698377278  0.3512182222332131
  0.3503069099627917  0.9533092698719093  0.3641256001337163
  0.3398560018889385  0.0595559142830243  0.6445810883377696
  0.1894637634697646  0.1946668810357012  0.1940455516688584
  0.1906638039669847  0.8072778573206333  0.8050698102287257
  0.6837403071314059  0.6863526990861434  0.6855198392894765
  0.3101810504584917  0.3123029718796086  0.6892311721668821
  0.6834521063827282  0.3128170408180737  0.3150615761605843
  0.2454026399295995  0.4996606443919666 -0.0031488269356114
  0.7442895385764831  0.5022244933441807 -0.0035165555444758
 -0.0049105745620555  0.2520927913180825  0.4975771084280511
 -0.0050713843953968  0.7517533676619038  0.5005044345638261
  0.4935777408885700  0.0068199697333215  0.2479013690003855
  0.4908211303386512 -0.0002585551062215  0.7483688860802942
  0.2453882971324416  0.0037749402231038  0.5009716196599281
  0.7445271986913814  0.0023947234607580  0.4972510157027470
  0.4912076668602078  0.2515382304077309  0.0025666645672581
  0.4950805636804792  0.7517968808249532 -0.0085945459309575
 -0.0054422261383917  0.4975899611819997  0.2481794229632807
 -0.0035474574171982  0.5042458494261137  0.7482377523922205
  0.0760662296319837  0.0014499480960038 -0.0012658918396860
  0.5299564940222553  0.4649255784547880  0.5354361967677165
  0.8369767139813554  0.8401179577172226  0.1583957386372909
  0.8359219619262309  0.1606111667427473  0.8398732548970397
  0.3413382914302263  0.6576117162795755  0.3414590799318293
 
  0.00000000E+00  0.00000000E+00  0.00000000E+00
  0.00000000E+00  0.00000000E+00  0.00000000E+00
  0.00000000E+00  0.00000000E+00  0.00000000E+00
  0.00000000E+00  0.00000000E+00  0.00000000E+00
  0.00000000E+00  0.00000000E+00  0.00000000E+00
  0.00000000E+00  0.00000000E+00  0.00000000E+00
  0.00000000E+00  0.00000000E+00  0.00000000E+00
  0.00000000E+00  0.00000000E+00  0.00000000E+00
  0.00000000E+00  0.00000000E+00  0.00000000E+00
  0.00000000E+00  0.00000000E+00  0.00000000E+00
  0.00000000E+00  0.00000000E+00  0.00000000E+00
  0.00000000E+00  0.00000000E+00  0.00000000E+00
  0.00000000E+00  0.00000000E+00  0.00000000E+00
  0.00000000E+00  0.00000000E+00  0.00000000E+00
  0.00000000E+00  0.00000000E+00  0.00000000E+00
  0.00000000E+00  0.00000000E+00  0.00000000E+00
  0.00000000E+00  0.00000000E+00  0.00000000E+00
  0.00000000E+00  0.00000000E+00  0.00000000E+00
  0.00000000E+00  0.00000000E+00  0.00000000E+00
  0.00000000E+00  0.00000000E+00  0.00000000E+00
  0.00000000E+00  0.00000000E+00  0.00000000E+00
  0.00000000E+00  0.00000000E+00  0.00000000E+00
  0.00000000E+00  0.00000000E+00  0.00000000E+00
  0.00000000E+00  0.00000000E+00  0.00000000E+00
  0.00000000E+00  0.00000000E+00  0.00000000E+00
  0.00000000E+00  0.00000000E+00  0.00000000E+00
  0.00000000E+00  0.00000000E+00  0.00000000E+00
  0.00000000E+00  0.00000000E+00  0.00000000E+00
  0.00000000E+00  0.00000000E+00  0.00000000E+00
  0.00000000E+00  0.00000000E+00  0.00000000E+00
  0.00000000E+00  0.00000000E+00  0.00000000E+00
  0.00000000E+00  0.00000000E+00  0.00000000E+00
  0.00000000E+00  0.00000000E+00  0.00000000E+00
  0.00000000E+00  0.00000000E+00  0.00000000E+00
  0.00000000E+00  0.00000000E+00  0.00000000E+00
  0.00000000E+00  0.00000000E+00  0.00000000E+00
  0.00000000E+00  0.00000000E+00  0.00000000E+00
  0.00000000E+00  0.00000000E+00  0.00000000E+00
  0.00000000E+00  0.00000000E+00  0.00000000E+00
  0.00000000E+00  0.00000000E+00  0.00000000E+00
  0.00000000E+00  0.00000000E+00  0.00000000E+00
  0.00000000E+00  0.00000000E+00  0.00000000E+00
  0.00000000E+00  0.00000000E+00  0.00000000E+00
  0.00000000E+00  0.00000000E+00  0.00000000E+00
  0.00000000E+00  0.00000000E+00  0.00000000E+00
  0.00000000E+00  0.00000000E+00  0.00000000E+00
