Sodilite                                
   1.00000000000000     
     9.1822883751460544    0.0258891405394792   -0.0244326347066025
     0.0258860172562471    9.1734346474420256    0.0032143380818740
    -0.0244328555450808    0.0032171160947732    9.1744877094143167
   O    Na   Al   Si   Cl   K 
    24     4     6     6     2     4
Direct
  0.1495286107224312  0.4569303628876238  0.1627339605106219
  0.8645530788890339  0.5384793658815106  0.1470187305865862
  0.8486470938600847  0.4491903561091221  0.8437996967319148
  0.1348772227675000  0.5344624858982775  0.8567042280990829
  0.1460011787959594  0.1339521323700572  0.4652537728679653
  0.1583932632002317  0.8462420953142661  0.5417567900628532
  0.8557516867602364  0.8643713585378133  0.4613548351186463
  0.8396985309407254  0.1477138828199281  0.5523312241714164
  0.4625894172779373  0.1394907376664576  0.1363587601785409
  0.5484685767197426  0.1587993100380119  0.8510611216071876
  0.4612002693240141  0.8533274858214961  0.8682073688871356
  0.5427957034619811  0.8365509318114601  0.1532952446451782
  0.9502688475168015  0.6470512733677092  0.6625218404013389
  0.0402210029264942  0.3635616473249225  0.6463477350290319
  0.9521587891465618  0.3484964909381768  0.3446172324161116
  0.0415184058698878  0.6354643239980233  0.3553459964935781
  0.6395203749240669  0.6461431241723541  0.9547477742340240
  0.3531287137375587  0.6533858939869850  0.0456512815436532
  0.3612666517584458  0.3470721452511020  0.9629187660972559
  0.6450558873697687  0.3432486606314060  0.0534142936414256
  0.6540499869127313  0.9473734862864743  0.6463868430406331
  0.6506133551630902  0.0462650581733946  0.3632209285365701
  0.3440760561635036  0.9533994283308319  0.3547879857791589
  0.3519434759745528  0.0360769634021099  0.6419990618122050
  0.7948112908563864  0.2046062737860318  0.7965114784706693
  0.6922555634996871  0.6913436504600387  0.6916744340440866
  0.6937689350506697  0.3095554442470903  0.3089768419313808
  0.3178902660104104  0.6871050783184867  0.3127548931706518
  0.2499928833036878  0.4966388163394530  0.0059509318242705
  0.7492202241282666  0.4944071820140097  0.0013752747899953
 -0.0043651021707834  0.2468151276533523  0.5029167101531345
 -0.0000539498358071  0.7462852176256424  0.5057992305068028
  0.5015657163457867 -0.0060388386461362  0.2539158450818236
  0.5038882183561687 -0.0013170960333381  0.7531587032285277
  0.2502404461348480 -0.0071211118267070  0.5019891467053410
  0.7498432530474632  0.0002641252140453  0.5060339030611311
  0.5043408195420243  0.2467300366181967  0.0014051271233569
  0.5000545959459396  0.7465223264859310  0.0055631782475219
  0.0010990213667742  0.4944693964692971  0.2533538545585418
 -0.0058219192661150  0.4977692051992093  0.7530124455838308
 -0.0410656353475758  0.0375838588486404 -0.0374006326565779
  0.5354287821181521  0.5285194834687579  0.4718024037724289
  0.1714201723395493  0.1659112653699235  0.1711483600512040
  0.8317663864247349  0.8273348795292412  0.1729465747802549
  0.1702233379515090  0.8284600266209144  0.8330965027756405
  0.3371705140148796  0.3371066512184047  0.6621793203038692
 
  0.00000000E+00  0.00000000E+00  0.00000000E+00
  0.00000000E+00  0.00000000E+00  0.00000000E+00
  0.00000000E+00  0.00000000E+00  0.00000000E+00
  0.00000000E+00  0.00000000E+00  0.00000000E+00
  0.00000000E+00  0.00000000E+00  0.00000000E+00
  0.00000000E+00  0.00000000E+00  0.00000000E+00
  0.00000000E+00  0.00000000E+00  0.00000000E+00
  0.00000000E+00  0.00000000E+00  0.00000000E+00
  0.00000000E+00  0.00000000E+00  0.00000000E+00
  0.00000000E+00  0.00000000E+00  0.00000000E+00
  0.00000000E+00  0.00000000E+00  0.00000000E+00
  0.00000000E+00  0.00000000E+00  0.00000000E+00
  0.00000000E+00  0.00000000E+00  0.00000000E+00
  0.00000000E+00  0.00000000E+00  0.00000000E+00
  0.00000000E+00  0.00000000E+00  0.00000000E+00
  0.00000000E+00  0.00000000E+00  0.00000000E+00
  0.00000000E+00  0.00000000E+00  0.00000000E+00
  0.00000000E+00  0.00000000E+00  0.00000000E+00
  0.00000000E+00  0.00000000E+00  0.00000000E+00
  0.00000000E+00  0.00000000E+00  0.00000000E+00
  0.00000000E+00  0.00000000E+00  0.00000000E+00
  0.00000000E+00  0.00000000E+00  0.00000000E+00
  0.00000000E+00  0.00000000E+00  0.00000000E+00
  0.00000000E+00  0.00000000E+00  0.00000000E+00
  0.00000000E+00  0.00000000E+00  0.00000000E+00
  0.00000000E+00  0.00000000E+00  0.00000000E+00
  0.00000000E+00  0.00000000E+00  0.00000000E+00
  0.00000000E+00  0.00000000E+00  0.00000000E+00
  0.00000000E+00  0.00000000E+00  0.00000000E+00
  0.00000000E+00  0.00000000E+00  0.00000000E+00
  0.00000000E+00  0.00000000E+00  0.00000000E+00
  0.00000000E+00  0.00000000E+00  0.00000000E+00
  0.00000000E+00  0.00000000E+00  0.00000000E+00
  0.00000000E+00  0.00000000E+00  0.00000000E+00
  0.00000000E+00  0.00000000E+00  0.00000000E+00
  0.00000000E+00  0.00000000E+00  0.00000000E+00
  0.00000000E+00  0.00000000E+00  0.00000000E+00
  0.00000000E+00  0.00000000E+00  0.00000000E+00
  0.00000000E+00  0.00000000E+00  0.00000000E+00
  0.00000000E+00  0.00000000E+00  0.00000000E+00
  0.00000000E+00  0.00000000E+00  0.00000000E+00
  0.00000000E+00  0.00000000E+00  0.00000000E+00
  0.00000000E+00  0.00000000E+00  0.00000000E+00
  0.00000000E+00  0.00000000E+00  0.00000000E+00
  0.00000000E+00  0.00000000E+00  0.00000000E+00
  0.00000000E+00  0.00000000E+00  0.00000000E+00
