Sodilite                                
   1.00000000000000     
     9.3015169286247623    0.0214064759849108    0.0000000000000000
     0.0213976011991035    9.3007843880518948    0.0000000000000000
     0.0000000000000000    0.0000000000000000    9.3096432895770018
   O    Na   Al   Si   Cl   K 
    24     2     6     6     2     6
Direct
  0.1438436834820903  0.4724134097548262  0.1553334038302385
  0.8561563165179098  0.5275865902451736  0.1553334038302385
  0.8559518208733197  0.4651029862954686  0.8485525373456607
  0.1440481791266801  0.5348970137045315  0.8485525373456607
  0.1449820526640501  0.1350233605860084  0.4751361316696833
  0.1614659531065620  0.8474205075469390  0.5379101379050881
  0.8550179473359505  0.8649766394139917  0.4751361316696833
  0.8385340468934382  0.1525794924530608  0.5379101379050881
  0.4734558338942618  0.1526064633759164  0.1453886024256673
  0.5361085311884938  0.1538852279430872  0.8574624638522588
  0.4638914688115066  0.8461147720569123  0.8574624638522588
  0.5265441661057383  0.8473935366240833  0.1453886024256673
  0.9702516398597018  0.6435173997274659  0.6561621489597326
  0.0297483601402980  0.3564826002725336  0.6561621489597326
  0.9741685468963798  0.3550740439789794  0.3496573170550017
  0.0258314531036208  0.6449259560210202  0.3496573170550017
  0.6452850796744535  0.6556762222779000  0.9735166668945052
  0.3570040778233682  0.6511638995133836  0.0293160897870174
  0.3547149203255469  0.3443237777220995  0.9735166668945052
  0.6429959221766322  0.3488361004866165  0.0293160897870174
  0.6525301908963910  0.9712795222055305  0.6469211216472712
  0.6543931670592883  0.0270638602941596  0.3589041939821669
  0.3456068329407115  0.9729361397058405  0.3589041939821669
  0.3474698091036091  0.0287204777944698  0.6469211216472712
  0.8026504172236918  0.1972739804851529  0.7983251315739823
  0.1973495827763080  0.8027260195148471  0.7983251315739823
  0.2495946774770825  0.4998076583275160  0.0016882598528503
  0.7504053225229175  0.5001923416724836  0.0016882598528503
 -0.0022078129587968  0.2494339774980895  0.5048900244083103
  0.0022078129587968  0.7505660225019104  0.5048900244083103
  0.5000000000000000 -0.0000000000000000  0.2534209119274095
  0.5000000000000000 -0.0000000000000000  0.7537553263166097
  0.2496941833278239 -0.0033153293559021  0.5049602385274666
  0.7503058166721757  0.0033153293559021  0.5049602385274666
  0.5013502836991345  0.2497589048077294  0.0016134080535201
  0.4986497163008651  0.7502410951922701  0.0016134080535201
  0.0000000000000000  0.5000000000000000  0.2530554280248377
  0.0000000000000000  0.5000000000000000  0.7530519452428910
  0.0000000000000000 -0.0000000000000000 -0.0612094374225497
  0.5000000000000000  0.5000000000000000  0.5055238741391240
  0.1724951994690972  0.1718493477254830  0.1717138072116868
  0.8275048005309021  0.8281506522745166  0.1717138072116868
  0.6843135170321979  0.6849220221383699  0.6852145033768776
  0.3156864829678018  0.3150779778616298  0.6852145033768776
  0.6820108108618740  0.3187331358086324  0.3185347875268524
  0.3179891891381262  0.6812668641913675  0.3185347875268524
 
  0.00000000E+00  0.00000000E+00  0.00000000E+00
  0.00000000E+00  0.00000000E+00  0.00000000E+00
  0.00000000E+00  0.00000000E+00  0.00000000E+00
  0.00000000E+00  0.00000000E+00  0.00000000E+00
  0.00000000E+00  0.00000000E+00  0.00000000E+00
  0.00000000E+00  0.00000000E+00  0.00000000E+00
  0.00000000E+00  0.00000000E+00  0.00000000E+00
  0.00000000E+00  0.00000000E+00  0.00000000E+00
  0.00000000E+00  0.00000000E+00  0.00000000E+00
  0.00000000E+00  0.00000000E+00  0.00000000E+00
  0.00000000E+00  0.00000000E+00  0.00000000E+00
  0.00000000E+00  0.00000000E+00  0.00000000E+00
  0.00000000E+00  0.00000000E+00  0.00000000E+00
  0.00000000E+00  0.00000000E+00  0.00000000E+00
  0.00000000E+00  0.00000000E+00  0.00000000E+00
  0.00000000E+00  0.00000000E+00  0.00000000E+00
  0.00000000E+00  0.00000000E+00  0.00000000E+00
  0.00000000E+00  0.00000000E+00  0.00000000E+00
  0.00000000E+00  0.00000000E+00  0.00000000E+00
  0.00000000E+00  0.00000000E+00  0.00000000E+00
  0.00000000E+00  0.00000000E+00  0.00000000E+00
  0.00000000E+00  0.00000000E+00  0.00000000E+00
  0.00000000E+00  0.00000000E+00  0.00000000E+00
  0.00000000E+00  0.00000000E+00  0.00000000E+00
  0.00000000E+00  0.00000000E+00  0.00000000E+00
  0.00000000E+00  0.00000000E+00  0.00000000E+00
  0.00000000E+00  0.00000000E+00  0.00000000E+00
  0.00000000E+00  0.00000000E+00  0.00000000E+00
  0.00000000E+00  0.00000000E+00  0.00000000E+00
  0.00000000E+00  0.00000000E+00  0.00000000E+00
  0.00000000E+00  0.00000000E+00  0.00000000E+00
  0.00000000E+00  0.00000000E+00  0.00000000E+00
  0.00000000E+00  0.00000000E+00  0.00000000E+00
  0.00000000E+00  0.00000000E+00  0.00000000E+00
  0.00000000E+00  0.00000000E+00  0.00000000E+00
  0.00000000E+00  0.00000000E+00  0.00000000E+00
  0.00000000E+00  0.00000000E+00  0.00000000E+00
  0.00000000E+00  0.00000000E+00  0.00000000E+00
  0.00000000E+00  0.00000000E+00  0.00000000E+00
  0.00000000E+00  0.00000000E+00  0.00000000E+00
  0.00000000E+00  0.00000000E+00  0.00000000E+00
  0.00000000E+00  0.00000000E+00  0.00000000E+00
  0.00000000E+00  0.00000000E+00  0.00000000E+00
  0.00000000E+00  0.00000000E+00  0.00000000E+00
  0.00000000E+00  0.00000000E+00  0.00000000E+00
  0.00000000E+00  0.00000000E+00  0.00000000E+00
