Sodilite                                
   1.00000000000000     
     9.2771401036500354   -0.0156512874889175   -0.0002128158037891
    -0.0156512874889175    9.2771401036500354    0.0002128158037891
    -0.0002132077505646    0.0002132077505646    9.2660482088227614
   O    Na   Al   Si   Cl   K 
    24     2     6     6     2     6
Direct
  0.1364741023814135  0.4739048129674233  0.1431839048018201
  0.8478634620115972  0.5403361302641153  0.1577787384491179
  0.8644058115083818  0.4674692433939931  0.8529783025096616
  0.1500812538985457  0.5319802368647545  0.8357826692182336
  0.1571522841370843  0.1484209537488916  0.4699617149688878
  0.1481127269672083  0.8597439471194791  0.5280901526241363
  0.8426817690397607  0.8516983070331177  0.4548669008543127
  0.8500475820502212  0.1378688094965810  0.5284609643841862
  0.4732048107041032  0.1462550996793340  0.1349210500583019
  0.5308623365171186  0.1593655435208061  0.8459322065534566
  0.4679845839622748  0.8563447291597318  0.8633666361392863
  0.5415760591666234  0.8375705132815189  0.1488320426372948
  0.9596638697358847  0.6521365379884028  0.6577787384491177
  0.0260951870325769  0.3635258976185865  0.6431839048018205
  0.9680197631352455  0.3499187461014544  0.3357826692182337
  0.0325307566060067  0.6355941884916182  0.3529783025096612
  0.6483016929668823  0.6573182309602393  0.9548669008543126
  0.3621311905034187  0.6499524179497788  0.0284609643841862
  0.3515790462511085  0.3428477158629158  0.9699617149688878
  0.6402560528805209  0.3518872730327918  0.0280901526241361
  0.6624294867184811  0.9584239408333766  0.6488320426372943
  0.6436552708402682  0.0320154160377253  0.3633666361392862
  0.3406344564791936  0.9691376634828814  0.3459322065534567
  0.3537449003206662  0.0267951892958968  0.6349210500583019
  0.7938898166575110  0.7927862851298323  0.2059649049622443
  0.7072137148701677  0.7061101833424890  0.7059649049622444
  0.2500845800669193  0.5008149076627973 -0.0058924964513489
  0.7499802240915551  0.5038186614594070 -0.0020251503013533
 -0.0008149076627975  0.2499154199330803  0.4941075035486510
 -0.0038186614594069  0.7500197759084449  0.4979748496986469
  0.5003632807097170 -0.0040895752517414  0.2463579260522725
  0.5040895752517411 -0.0003632807097172  0.7463579260522726
  0.2499411388832919  0.0002980237557545  0.4945020688768121
  0.7498520615848877 -0.0047667995084789  0.4982896518531705
  0.4997019762442454  0.2500588611167082 -0.0054979311231882
  0.5047667995084790  0.7501479384151123 -0.0017103481468294
 -0.0038451560264602  0.5003538319739242  0.2466346745361795
 -0.0003538319739246  0.5038451560264603  0.7466346745361802
 -0.0387395346523467 -0.0388431148671482  0.0327788742021137
  0.5388431148671481  0.5387395346523470  0.5327788742021137
  0.1723079461465535  0.1726948500979368  0.1707120398591029
  0.8255267416560641  0.1757832698995352  0.8243551175188680
  0.1761663213959254  0.8261655359763839  0.8241671056932436
  0.3273051499020631  0.3276920538534462  0.6707120398591023
  0.6738344640236161  0.3238336786040747  0.3241671056932436
  0.3242167301004649  0.6744732583439359  0.3243551175188683
 
  0.00000000E+00  0.00000000E+00  0.00000000E+00
  0.00000000E+00  0.00000000E+00  0.00000000E+00
  0.00000000E+00  0.00000000E+00  0.00000000E+00
  0.00000000E+00  0.00000000E+00  0.00000000E+00
  0.00000000E+00  0.00000000E+00  0.00000000E+00
  0.00000000E+00  0.00000000E+00  0.00000000E+00
  0.00000000E+00  0.00000000E+00  0.00000000E+00
  0.00000000E+00  0.00000000E+00  0.00000000E+00
  0.00000000E+00  0.00000000E+00  0.00000000E+00
  0.00000000E+00  0.00000000E+00  0.00000000E+00
  0.00000000E+00  0.00000000E+00  0.00000000E+00
  0.00000000E+00  0.00000000E+00  0.00000000E+00
  0.00000000E+00  0.00000000E+00  0.00000000E+00
  0.00000000E+00  0.00000000E+00  0.00000000E+00
  0.00000000E+00  0.00000000E+00  0.00000000E+00
  0.00000000E+00  0.00000000E+00  0.00000000E+00
  0.00000000E+00  0.00000000E+00  0.00000000E+00
  0.00000000E+00  0.00000000E+00  0.00000000E+00
  0.00000000E+00  0.00000000E+00  0.00000000E+00
  0.00000000E+00  0.00000000E+00  0.00000000E+00
  0.00000000E+00  0.00000000E+00  0.00000000E+00
  0.00000000E+00  0.00000000E+00  0.00000000E+00
  0.00000000E+00  0.00000000E+00  0.00000000E+00
  0.00000000E+00  0.00000000E+00  0.00000000E+00
  0.00000000E+00  0.00000000E+00  0.00000000E+00
  0.00000000E+00  0.00000000E+00  0.00000000E+00
  0.00000000E+00  0.00000000E+00  0.00000000E+00
  0.00000000E+00  0.00000000E+00  0.00000000E+00
  0.00000000E+00  0.00000000E+00  0.00000000E+00
  0.00000000E+00  0.00000000E+00  0.00000000E+00
  0.00000000E+00  0.00000000E+00  0.00000000E+00
  0.00000000E+00  0.00000000E+00  0.00000000E+00
  0.00000000E+00  0.00000000E+00  0.00000000E+00
  0.00000000E+00  0.00000000E+00  0.00000000E+00
  0.00000000E+00  0.00000000E+00  0.00000000E+00
  0.00000000E+00  0.00000000E+00  0.00000000E+00
  0.00000000E+00  0.00000000E+00  0.00000000E+00
  0.00000000E+00  0.00000000E+00  0.00000000E+00
  0.00000000E+00  0.00000000E+00  0.00000000E+00
  0.00000000E+00  0.00000000E+00  0.00000000E+00
  0.00000000E+00  0.00000000E+00  0.00000000E+00
  0.00000000E+00  0.00000000E+00  0.00000000E+00
  0.00000000E+00  0.00000000E+00  0.00000000E+00
  0.00000000E+00  0.00000000E+00  0.00000000E+00
  0.00000000E+00  0.00000000E+00  0.00000000E+00
  0.00000000E+00  0.00000000E+00  0.00000000E+00
