Sodilite                                
   1.00000000000000     
     9.1079722932887197   -0.0160837869017516    0.0148072738095841
    -0.0160856911390768    9.0959808809686571    0.0147112943248858
     0.0148111636507574    0.0147040337279553    9.0943784523060511
   O    Na   Al   Si   Cl   K 
    24     5     6     6     2     3
Direct
  0.1425108941446735  0.4567629925645430  0.1509869639640731
  0.8580953024522864  0.5548599604625374  0.1491090204577630
  0.8600150461030148  0.4437016545379324  0.8481547607835014
  0.1417883452409219  0.5473523425407434  0.8473011363757539
  0.1518073453620343  0.1444045315789433  0.4538458353748639
  0.1535482394943956  0.8585775457307627  0.5437529980860036
  0.8496809269837999  0.8606161953862628  0.4438850808650882
  0.8505812431316376  0.1405645237213808  0.5559591582349321
  0.4572445651295325  0.1408287874992020  0.1279184265105407
  0.5584268125549798  0.1643287500774519  0.8459058566706403
  0.4587977040257616  0.8627923800474523  0.8688101328138955
  0.5556768474956730  0.8373977262786380  0.1526195902829961
  0.9458176968532027  0.6477758915936462  0.6569417995613657
  0.0533553413887444  0.3653545294574310  0.6439024078812151
  0.9451309354856123  0.3529789366152106  0.3410966938765017
  0.0442812982436332  0.6366692777576145  0.3543116760271246
  0.6476421373675380  0.6553929783129702  0.9423494326743218
  0.3643548599560507  0.6496176117293204  0.0418460170536905
  0.3549957034305847  0.3433846175784097  0.9466196663074086
  0.6366902334742082  0.3560480062223110  0.0542933723413872
  0.6477371264540042  0.9442483860017870  0.6339702293552234
  0.6573241131517382  0.0584948020595556  0.3548285791620447
  0.3552885158352588  0.9593898130518224  0.3606351402617298
  0.3459627365017803  0.0528935326904198  0.6473101813379526
  0.8080114596737977  0.8065900900533891  0.1923103453264957
  0.8056079978932585  0.1971236131384903  0.8025808949945606
  0.6902813274593179  0.6886704381879574  0.6890599806193720
  0.3172315784534246  0.3131286232305332  0.6859014057817282
  0.6898073044289444  0.3116864637974451  0.3102300836902493
  0.2522357982517973  0.4995640705095271 -0.0029526488250967
  0.7510537409493818  0.5018680459717122 -0.0027272107019101
 -0.0010295250490939  0.2517793431259235  0.4980215921652635
 -0.0013496273910969  0.7516693459029677  0.5006613385576875
  0.5073216219382307 -0.0003957258942558  0.2481439261553155
  0.5045956112833877  0.0059683808853836  0.7483055211726894
  0.2522490398439847  0.0037007635954765  0.5009707259238063
  0.7514129416220957  0.0017176771743924  0.4974349996545033
  0.5030979084771315  0.2513575939010710 -0.0061834932516673
  0.5071687396346756  0.7516443205433954  0.0007624984702054
 -0.0022282410910080  0.5000924397368531  0.2485794185795116
 -0.0002897175872328  0.5013335053332086  0.7486246471742618
 -0.0792771665767873  0.0025173566321089 -0.0027197951725568
  0.5398824112481269  0.4662937558144382  0.5335153776413463
  0.1613739782973125  0.1604732719072743  0.1594340117002908
  0.1625566922930472  0.8412774827448076  0.8401713619970509
  0.3435321556862362  0.6575033702115525  0.3435208620868740
 
  0.00000000E+00  0.00000000E+00  0.00000000E+00
  0.00000000E+00  0.00000000E+00  0.00000000E+00
  0.00000000E+00  0.00000000E+00  0.00000000E+00
  0.00000000E+00  0.00000000E+00  0.00000000E+00
  0.00000000E+00  0.00000000E+00  0.00000000E+00
  0.00000000E+00  0.00000000E+00  0.00000000E+00
  0.00000000E+00  0.00000000E+00  0.00000000E+00
  0.00000000E+00  0.00000000E+00  0.00000000E+00
  0.00000000E+00  0.00000000E+00  0.00000000E+00
  0.00000000E+00  0.00000000E+00  0.00000000E+00
  0.00000000E+00  0.00000000E+00  0.00000000E+00
  0.00000000E+00  0.00000000E+00  0.00000000E+00
  0.00000000E+00  0.00000000E+00  0.00000000E+00
  0.00000000E+00  0.00000000E+00  0.00000000E+00
  0.00000000E+00  0.00000000E+00  0.00000000E+00
  0.00000000E+00  0.00000000E+00  0.00000000E+00
  0.00000000E+00  0.00000000E+00  0.00000000E+00
  0.00000000E+00  0.00000000E+00  0.00000000E+00
  0.00000000E+00  0.00000000E+00  0.00000000E+00
  0.00000000E+00  0.00000000E+00  0.00000000E+00
  0.00000000E+00  0.00000000E+00  0.00000000E+00
  0.00000000E+00  0.00000000E+00  0.00000000E+00
  0.00000000E+00  0.00000000E+00  0.00000000E+00
  0.00000000E+00  0.00000000E+00  0.00000000E+00
  0.00000000E+00  0.00000000E+00  0.00000000E+00
  0.00000000E+00  0.00000000E+00  0.00000000E+00
  0.00000000E+00  0.00000000E+00  0.00000000E+00
  0.00000000E+00  0.00000000E+00  0.00000000E+00
  0.00000000E+00  0.00000000E+00  0.00000000E+00
  0.00000000E+00  0.00000000E+00  0.00000000E+00
  0.00000000E+00  0.00000000E+00  0.00000000E+00
  0.00000000E+00  0.00000000E+00  0.00000000E+00
  0.00000000E+00  0.00000000E+00  0.00000000E+00
  0.00000000E+00  0.00000000E+00  0.00000000E+00
  0.00000000E+00  0.00000000E+00  0.00000000E+00
  0.00000000E+00  0.00000000E+00  0.00000000E+00
  0.00000000E+00  0.00000000E+00  0.00000000E+00
  0.00000000E+00  0.00000000E+00  0.00000000E+00
  0.00000000E+00  0.00000000E+00  0.00000000E+00
  0.00000000E+00  0.00000000E+00  0.00000000E+00
  0.00000000E+00  0.00000000E+00  0.00000000E+00
  0.00000000E+00  0.00000000E+00  0.00000000E+00
  0.00000000E+00  0.00000000E+00  0.00000000E+00
  0.00000000E+00  0.00000000E+00  0.00000000E+00
  0.00000000E+00  0.00000000E+00  0.00000000E+00
  0.00000000E+00  0.00000000E+00  0.00000000E+00
