Sodilite                                
   1.00000000000000     
     9.1490687194116838   -0.0255858570095829    0.0255858570095829
    -0.0255980070970440    9.1606872089048217    0.0064626333198118
     0.0255980070970440    0.0064626333198118    9.1606872089048217
   O    Na   Al   Si   Cl   K 
    24     4     6     6     2     4
Direct
  0.1322336653543703  0.4663518680175043  0.1379434396719718
  0.8446554560478529  0.5506560743372868  0.1599121021993526
  0.8708788638782137  0.4598109764514075  0.8574929152155837
  0.1525227632325333  0.5562155617631405  0.8337012907722028
  0.1485501942771313  0.1425039265929964  0.4588470265576635
  0.1545315071039431  0.8574237465100856  0.5499922875017126
  0.8503213934757536  0.8609709504666887  0.4482390590076511
  0.8448014605390007  0.1458589252538457  0.5397033863720231
  0.4603789532469347  0.1562825068667861  0.1402016776671333
  0.5429321331510584  0.1530694604960467  0.8546888170896852
  0.4474598074884439  0.8520643858346305  0.8567962283748638
  0.5478136850360773  0.8484488551470396  0.1398142745884624
  0.9474598074884443  0.6432037716251362  0.6479356141653695
  0.0478136850360777  0.3601857254115378  0.6515511448529604
  0.9603789532469345  0.3597983223328668  0.3437174931332139
  0.0429321331510585  0.6453111829103148  0.3469305395039533
  0.6525227632325333  0.6662987092277972  0.9437844382368595
  0.3708788638782136  0.6425070847844163  0.0401890235485925
  0.3446554560478530  0.3400878978006473  0.9493439256627132
  0.6322336653543698  0.3620565603280281  0.0336481319824957
  0.6545315071039429  0.9500077124982874  0.6425762534899144
  0.6485501942771310  0.0411529734423363  0.3574960734070036
  0.3448014605390006  0.9602966136279769  0.3541410747461541
  0.3503213934757538  0.0517609409923491  0.6390290495333113
  0.8075065188226497  0.8071113168831394  0.1918951759350070
  0.1976184711748452  0.8054135921897352  0.8028349791537932
  0.6976184711748449  0.6971650208462068  0.6945864078102648
  0.3075065188226501  0.3081048240649926  0.6928886831168606
  0.2498552513045521  0.5032274321231703 -0.0097067531877680
  0.7498552513045520  0.5097067531877679 -0.0032274321231706
 -0.0008550928490748  0.2541212785376506  0.4985159453664790
  0.0000340807944057  0.7530924683918426  0.4985303112922271
  0.4991449071509250  0.0014840546335211  0.2458787214623495
  0.5000340807944055  0.0014696887077727  0.7469075316081574
  0.2496201835649540  0.0025599676902302  0.4998276778896414
  0.7496201835649535  0.0001723221103586  0.4974400323097699
  0.4956449487956863  0.2538761268655673 -0.0062704657512141
  0.5039296540231065  0.7527402815673127 -0.0057567119225353
 -0.0043550512043136  0.5062704657512143  0.2461238731344326
  0.0039296540231062  0.5057567119225351  0.7472597184326873
  0.0015780655624788 -0.0718649405028258 -0.0043539752295970
  0.5015780655624789  0.5043539752295969  0.5718649405028260
  0.1619198188796027  0.1654726684129117  0.1630881362217564
  0.8360682170954800  0.1658163992795328  0.8352870043896300
  0.6619198188796023  0.3369118637782436  0.3345273315870884
  0.3360682170954800  0.6647129956103700  0.3341836007204674
 
  0.00000000E+00  0.00000000E+00  0.00000000E+00
  0.00000000E+00  0.00000000E+00  0.00000000E+00
  0.00000000E+00  0.00000000E+00  0.00000000E+00
  0.00000000E+00  0.00000000E+00  0.00000000E+00
  0.00000000E+00  0.00000000E+00  0.00000000E+00
  0.00000000E+00  0.00000000E+00  0.00000000E+00
  0.00000000E+00  0.00000000E+00  0.00000000E+00
  0.00000000E+00  0.00000000E+00  0.00000000E+00
  0.00000000E+00  0.00000000E+00  0.00000000E+00
  0.00000000E+00  0.00000000E+00  0.00000000E+00
  0.00000000E+00  0.00000000E+00  0.00000000E+00
  0.00000000E+00  0.00000000E+00  0.00000000E+00
  0.00000000E+00  0.00000000E+00  0.00000000E+00
  0.00000000E+00  0.00000000E+00  0.00000000E+00
  0.00000000E+00  0.00000000E+00  0.00000000E+00
  0.00000000E+00  0.00000000E+00  0.00000000E+00
  0.00000000E+00  0.00000000E+00  0.00000000E+00
  0.00000000E+00  0.00000000E+00  0.00000000E+00
  0.00000000E+00  0.00000000E+00  0.00000000E+00
  0.00000000E+00  0.00000000E+00  0.00000000E+00
  0.00000000E+00  0.00000000E+00  0.00000000E+00
  0.00000000E+00  0.00000000E+00  0.00000000E+00
  0.00000000E+00  0.00000000E+00  0.00000000E+00
  0.00000000E+00  0.00000000E+00  0.00000000E+00
  0.00000000E+00  0.00000000E+00  0.00000000E+00
  0.00000000E+00  0.00000000E+00  0.00000000E+00
  0.00000000E+00  0.00000000E+00  0.00000000E+00
  0.00000000E+00  0.00000000E+00  0.00000000E+00
  0.00000000E+00  0.00000000E+00  0.00000000E+00
  0.00000000E+00  0.00000000E+00  0.00000000E+00
  0.00000000E+00  0.00000000E+00  0.00000000E+00
  0.00000000E+00  0.00000000E+00  0.00000000E+00
  0.00000000E+00  0.00000000E+00  0.00000000E+00
  0.00000000E+00  0.00000000E+00  0.00000000E+00
  0.00000000E+00  0.00000000E+00  0.00000000E+00
  0.00000000E+00  0.00000000E+00  0.00000000E+00
  0.00000000E+00  0.00000000E+00  0.00000000E+00
  0.00000000E+00  0.00000000E+00  0.00000000E+00
  0.00000000E+00  0.00000000E+00  0.00000000E+00
  0.00000000E+00  0.00000000E+00  0.00000000E+00
  0.00000000E+00  0.00000000E+00  0.00000000E+00
  0.00000000E+00  0.00000000E+00  0.00000000E+00
  0.00000000E+00  0.00000000E+00  0.00000000E+00
  0.00000000E+00  0.00000000E+00  0.00000000E+00
  0.00000000E+00  0.00000000E+00  0.00000000E+00
  0.00000000E+00  0.00000000E+00  0.00000000E+00
