Sodilite                                
   1.00000000000000     
     9.2771474003575598   -0.0002071140858728   -0.0156491629311938
    -0.0002075198187182    9.2660559051336513    0.0002075198187182
    -0.0156491629311938    0.0002071140858728    9.2771474003575598
   O    Na   Al   Si   Cl   K 
    24     2     6     6     2     6
Direct
  0.1483018029424682  0.4548668558163120  0.1573186603777449
  0.8621312373032843  0.5284613709269795  0.1499521883031529
  0.8515790585918603  0.4699612101854657  0.8428474858943070
  0.1402559495746369  0.5280904667829983  0.8518877897132087
  0.1624291506449340  0.1488323622498805  0.4584233745996130
  0.1436552737471782  0.8633671382021758  0.5320152663808663
  0.8406346348637849  0.8459320228008894  0.4691374446958242
  0.8537450524120528  0.1349209309906108  0.5267958379494857
  0.4596641075942589  0.1577784432974637  0.1521364769534604
  0.5260956482263673  0.1431840191353976  0.8635259222257965
  0.4680188410556021  0.8357831428657077  0.8499186946547581
  0.5325309588281809  0.8529780859492707  0.1355940815408222
  0.9732041620505143  0.6349209309906113  0.6462549475879472
  0.0308625553041757  0.3459320228008894  0.6593653651362151
  0.9679847336191337  0.3633671382021762  0.3563447262528216
  0.0415766254003868  0.6488323622498806  0.3375708493550661
  0.6364740777742035  0.6431840191353970  0.9739043517736327
  0.3478635230465394  0.6577784432974635  0.0403358924057411
  0.3644059184591776  0.3529780859492710  0.9674690411718191
  0.6500813053452419  0.3357831428657078  0.0319811589443980
  0.6571525141056930  0.9699612101854652  0.6484209414081397
  0.6481122102867913  0.0280904667829985  0.3597440504253631
  0.3426813396222552  0.9548668558163121  0.3516981970575315
  0.3500478116968471  0.0284613709269788  0.6378687626967157
  0.2072142384372517  0.2059649657744406  0.2061105396794440
  0.2938894603205557  0.7059649657744411  0.2927857615627484
  0.2499801319899379  0.4979750568234153  0.0038190880921334
  0.7500845838633843  0.4941073977637249  0.0008148408681600
  0.0040897433168072  0.2463578484140959  0.4996367352660296
  0.0003632647339704  0.7463578484140959  0.4959102566831927
  0.4961809119078666 -0.0020249431765845  0.2500198680100623
  0.4991851591318400 -0.0058926022362750  0.7499154161366157
  0.2498519269255350 -0.0017100228676283  0.4952330814812800
  0.7499411793152383 -0.0054979650036223  0.5002982427723429
  0.4996465863991745  0.2466348184473234  0.0038453716957834
  0.4961546283042167  0.7466348184473238  0.0003534136008252
  0.0047669185187199  0.4982899771323716  0.2501480730744649
 -0.0002982427723429  0.4945020349963776  0.7500588206847617
  0.0388456020344232  0.0327780659471905  0.0387421358493993
  0.4612578641506005  0.5327780659471902  0.4611543979655764
  0.8242169030772606  0.8243555403514299  0.1744727032505902
  0.8273068444239901  0.1707107754477885  0.8276934489628407
  0.1738340775808750  0.8241674696986890  0.8238341219414419
  0.6723065510371593  0.6707107754477880  0.6726931555760099
  0.3255272967494098  0.3243555403514303  0.6757830969227394
  0.6761658780585581  0.3241674696986888  0.3261659224191251
 
  0.00000000E+00  0.00000000E+00  0.00000000E+00
  0.00000000E+00  0.00000000E+00  0.00000000E+00
  0.00000000E+00  0.00000000E+00  0.00000000E+00
  0.00000000E+00  0.00000000E+00  0.00000000E+00
  0.00000000E+00  0.00000000E+00  0.00000000E+00
  0.00000000E+00  0.00000000E+00  0.00000000E+00
  0.00000000E+00  0.00000000E+00  0.00000000E+00
  0.00000000E+00  0.00000000E+00  0.00000000E+00
  0.00000000E+00  0.00000000E+00  0.00000000E+00
  0.00000000E+00  0.00000000E+00  0.00000000E+00
  0.00000000E+00  0.00000000E+00  0.00000000E+00
  0.00000000E+00  0.00000000E+00  0.00000000E+00
  0.00000000E+00  0.00000000E+00  0.00000000E+00
  0.00000000E+00  0.00000000E+00  0.00000000E+00
  0.00000000E+00  0.00000000E+00  0.00000000E+00
  0.00000000E+00  0.00000000E+00  0.00000000E+00
  0.00000000E+00  0.00000000E+00  0.00000000E+00
  0.00000000E+00  0.00000000E+00  0.00000000E+00
  0.00000000E+00  0.00000000E+00  0.00000000E+00
  0.00000000E+00  0.00000000E+00  0.00000000E+00
  0.00000000E+00  0.00000000E+00  0.00000000E+00
  0.00000000E+00  0.00000000E+00  0.00000000E+00
  0.00000000E+00  0.00000000E+00  0.00000000E+00
  0.00000000E+00  0.00000000E+00  0.00000000E+00
  0.00000000E+00  0.00000000E+00  0.00000000E+00
  0.00000000E+00  0.00000000E+00  0.00000000E+00
  0.00000000E+00  0.00000000E+00  0.00000000E+00
  0.00000000E+00  0.00000000E+00  0.00000000E+00
  0.00000000E+00  0.00000000E+00  0.00000000E+00
  0.00000000E+00  0.00000000E+00  0.00000000E+00
  0.00000000E+00  0.00000000E+00  0.00000000E+00
  0.00000000E+00  0.00000000E+00  0.00000000E+00
  0.00000000E+00  0.00000000E+00  0.00000000E+00
  0.00000000E+00  0.00000000E+00  0.00000000E+00
  0.00000000E+00  0.00000000E+00  0.00000000E+00
  0.00000000E+00  0.00000000E+00  0.00000000E+00
  0.00000000E+00  0.00000000E+00  0.00000000E+00
  0.00000000E+00  0.00000000E+00  0.00000000E+00
  0.00000000E+00  0.00000000E+00  0.00000000E+00
  0.00000000E+00  0.00000000E+00  0.00000000E+00
  0.00000000E+00  0.00000000E+00  0.00000000E+00
  0.00000000E+00  0.00000000E+00  0.00000000E+00
  0.00000000E+00  0.00000000E+00  0.00000000E+00
  0.00000000E+00  0.00000000E+00  0.00000000E+00
  0.00000000E+00  0.00000000E+00  0.00000000E+00
  0.00000000E+00  0.00000000E+00  0.00000000E+00
