Sodilite                                
   1.00000000000000     
     9.1764615163550118    0.0000000000000000    0.0000000000000000
     0.0000000000000000    9.1413739880511553    0.0000000026850575
     0.0000000000000000   -0.0000000026850575    9.1413739880511553
   O    Na   Al   Si   Cl   K 
    24     4     6     6     2     4
Direct
  0.1415806924183194  0.4613295924690445  0.1534417619356935
  0.8575479048425451  0.5526549384985364  0.1504597356632230
  0.8575479048425451  0.4473450615014640  0.8495402643367774
  0.1415806924183194  0.5386704075309561  0.8465582380643062
  0.1514679751653944  0.1444439858513581  0.4618211082344135
  0.1514679751653944  0.8555560141486420  0.5381788917655864
  0.8481486809037558  0.8598768671963486  0.4466049711184449
  0.8481486809037558  0.1401231328036510  0.5533950288815547
  0.4624143711282840  0.1376391603016700  0.1286624618947430
  0.5520136085335819  0.1660018445318761  0.8444544481055404
  0.4624143711282840  0.8623608396983301  0.8713375381052565
  0.5520136085335819  0.8339981554681236  0.1555455518944598
  0.9479863914664181  0.6555455518944596  0.6660018445318764
  0.0375856288717160  0.3713375381052570  0.6376391603016699
  0.9479863914664181  0.3444544481055403  0.3339981554681241
  0.0375856288717160  0.6286624618947435  0.3623608396983299
  0.6424520951574549  0.6504597356632226  0.9473450615014636
  0.3584193075816805  0.6534417619356938  0.0386704075309554
  0.3584193075816805  0.3465582380643062  0.9613295924690439
  0.6424520951574549  0.3495402643367771  0.0526549384985362
  0.6518513190962442  0.9466049711184453  0.6401231328036514
  0.6518513190962442  0.0533950288815551  0.3598768671963489
  0.3485320248346055  0.9618211082344135  0.3555560141486417
  0.3485320248346055  0.0381788917655864  0.6444439858513579
  0.8032908136874936  0.8028831916615138  0.1964913649022390
  0.8032908136874936  0.1971168083384860  0.8035086350977610
  0.6967091863125064  0.6964913649022390  0.6971168083384862
  0.6967091863125064  0.3035086350977611  0.3028831916615143
  0.2500000000000000  0.5000000000000000 -0.0000000000000000
  0.7500000000000000  0.5000000000000000 -0.0000000000000000
 -0.0048650017134665  0.2501347098684021  0.4964371083849419
 -0.0048650017134665  0.7498652901315978  0.5035628916150581
  0.5048650017134662 -0.0035628916150581  0.2498652901315978
  0.5048650017134662  0.0035628916150581  0.7501347098684022
  0.2500000000000000  0.0000000000000000  0.5000000000000000
  0.7500000000000000  0.0000000000000000  0.5000000000000000
  0.5044395144443515  0.2498207762021130 -0.0031323808865839
  0.5044395144443515  0.7501792237978874  0.0031323808865839
 -0.0044395144443514  0.4968676191134161  0.2501792237978870
 -0.0044395144443514  0.5031323808865837  0.7498207762021126
 -0.0769014845834077  0.0000000000000000 -0.0000000000000000
  0.5769014845834073  0.5000000000000000  0.5000000000000000
  0.1644604362683063  0.1622458480564490  0.1625060378932882
  0.1644604362683063  0.8377541519435514  0.8374939621067113
  0.3355395637316936  0.3374939621067115  0.6622458480564486
  0.3355395637316936  0.6625060378932887  0.3377541519435510
 
  0.00000000E+00  0.00000000E+00  0.00000000E+00
  0.00000000E+00  0.00000000E+00  0.00000000E+00
  0.00000000E+00  0.00000000E+00  0.00000000E+00
  0.00000000E+00  0.00000000E+00  0.00000000E+00
  0.00000000E+00  0.00000000E+00  0.00000000E+00
  0.00000000E+00  0.00000000E+00  0.00000000E+00
  0.00000000E+00  0.00000000E+00  0.00000000E+00
  0.00000000E+00  0.00000000E+00  0.00000000E+00
  0.00000000E+00  0.00000000E+00  0.00000000E+00
  0.00000000E+00  0.00000000E+00  0.00000000E+00
  0.00000000E+00  0.00000000E+00  0.00000000E+00
  0.00000000E+00  0.00000000E+00  0.00000000E+00
  0.00000000E+00  0.00000000E+00  0.00000000E+00
  0.00000000E+00  0.00000000E+00  0.00000000E+00
  0.00000000E+00  0.00000000E+00  0.00000000E+00
  0.00000000E+00  0.00000000E+00  0.00000000E+00
  0.00000000E+00  0.00000000E+00  0.00000000E+00
  0.00000000E+00  0.00000000E+00  0.00000000E+00
  0.00000000E+00  0.00000000E+00  0.00000000E+00
  0.00000000E+00  0.00000000E+00  0.00000000E+00
  0.00000000E+00  0.00000000E+00  0.00000000E+00
  0.00000000E+00  0.00000000E+00  0.00000000E+00
  0.00000000E+00  0.00000000E+00  0.00000000E+00
  0.00000000E+00  0.00000000E+00  0.00000000E+00
  0.00000000E+00  0.00000000E+00  0.00000000E+00
  0.00000000E+00  0.00000000E+00  0.00000000E+00
  0.00000000E+00  0.00000000E+00  0.00000000E+00
  0.00000000E+00  0.00000000E+00  0.00000000E+00
  0.00000000E+00  0.00000000E+00  0.00000000E+00
  0.00000000E+00  0.00000000E+00  0.00000000E+00
  0.00000000E+00  0.00000000E+00  0.00000000E+00
  0.00000000E+00  0.00000000E+00  0.00000000E+00
  0.00000000E+00  0.00000000E+00  0.00000000E+00
  0.00000000E+00  0.00000000E+00  0.00000000E+00
  0.00000000E+00  0.00000000E+00  0.00000000E+00
  0.00000000E+00  0.00000000E+00  0.00000000E+00
  0.00000000E+00  0.00000000E+00  0.00000000E+00
  0.00000000E+00  0.00000000E+00  0.00000000E+00
  0.00000000E+00  0.00000000E+00  0.00000000E+00
  0.00000000E+00  0.00000000E+00  0.00000000E+00
  0.00000000E+00  0.00000000E+00  0.00000000E+00
  0.00000000E+00  0.00000000E+00  0.00000000E+00
  0.00000000E+00  0.00000000E+00  0.00000000E+00
  0.00000000E+00  0.00000000E+00  0.00000000E+00
  0.00000000E+00  0.00000000E+00  0.00000000E+00
  0.00000000E+00  0.00000000E+00  0.00000000E+00
