Sodilite                                
   1.00000000000000     
     9.2275074492100853    0.0129438445175312   -0.0144250956881124
     0.0129514130485581    9.2278616841687882    0.0353180404894497
    -0.0144337629372476    0.0353332321466062    9.2274390118745018
   O    Na   Al   Si   Cl   K 
    24     3     6     6     2     5
Direct
  0.1545899531619446  0.4616761350129681  0.1598298363434337
  0.8672997175666057  0.5317412932161876  0.1485045646539169
  0.8528796312677521  0.4547148588449793  0.8395875866050181
  0.1379403945833387  0.5351980751860990  0.8576198884405495
  0.1489918911342391  0.1341624394003541  0.4634490726129725
  0.1641510169443608  0.8493737271655875  0.5395126554928796
  0.8587508492256267  0.8620895251366480  0.4700300541444252
  0.8442609066440485  0.1507108299706457  0.5439037645755143
  0.4681304552464616  0.1471625595540424  0.1378259502404103
  0.5481351549721712  0.1569088917917169  0.8513806432256403
  0.4676890528727092  0.8506901035874008  0.8627273758637236
  0.5375338205282024  0.8413651988035596  0.1504281638249491
  0.9681556084547135  0.6322036660208881  0.6464078896091718
  0.0503587108559031  0.3471850720208735  0.6619410552401274
  0.9692768496004980  0.3645159224390261  0.3580380196231065
  0.0444075972084425  0.6520104679416426  0.3395449819355845
  0.6487062256391287  0.6525354026545302  0.9665091068515081
  0.3602742416664185  0.6504565252586746  0.0407007674355131
  0.3578934012711200  0.3425651819195333  0.9548975422198753
  0.6428304527113230  0.3501469193874778  0.0376734800679841
  0.6531269464246814  0.9616877613806434  0.6416691547095493
  0.6597644584263391  0.0353747605788083  0.3562695242233540
  0.3519577928875518  0.9601506998677612  0.3587489737785411
  0.3493055055247746  0.0431953974857245  0.6462778211561192
  0.7979852873787275  0.2024327990624390  0.7963464020197358
  0.3028307619634065  0.3011718965340005  0.6973310638007612
  0.3067228551222271  0.6909803746289812  0.3088026662127185
  0.2550583567387527  0.4964710960934486  0.0024485852124756
  0.7555266601670715  0.4971535632983432 -0.0014757081556105
  0.0044648170070037  0.2488568786653944  0.5060232729410483
  0.0088121247892817  0.7478416797922679  0.5005926846880204
  0.5052032350804980 -0.0022686811000586  0.2517532809174152
  0.5045818494516776  0.0014407211488352  0.7513470191621021
  0.2546005702898463 -0.0028990860451514  0.5026010731980962
  0.7550956899532423  0.0020066865248413  0.5031896559952347
  0.5046774836415907  0.2488373492792880 -0.0035589684632316
  0.5042973420640539  0.7483198832346467  0.0042029868405382
  0.0090750462789190  0.5012625272917279  0.2519230027606879
  0.0034740726871825  0.4926834177181408  0.7513867908552787
 -0.0330474062641778  0.0367617204538334 -0.0368448565556003
  0.4359058285175170  0.4960924546380688  0.5037366685892911
  0.1749702487265213  0.1714334418496960  0.1738677365912886
  0.8307561437163395  0.8280142014386607  0.1732118645593597
  0.1744389585836650  0.8250322078573803  0.8293491020511468
  0.6686809290913771  0.6680819867488976  0.6689032751874827
  0.6694785101969205  0.3324714662605452  0.3313845287178939
 
  0.00000000E+00  0.00000000E+00  0.00000000E+00
  0.00000000E+00  0.00000000E+00  0.00000000E+00
  0.00000000E+00  0.00000000E+00  0.00000000E+00
  0.00000000E+00  0.00000000E+00  0.00000000E+00
  0.00000000E+00  0.00000000E+00  0.00000000E+00
  0.00000000E+00  0.00000000E+00  0.00000000E+00
  0.00000000E+00  0.00000000E+00  0.00000000E+00
  0.00000000E+00  0.00000000E+00  0.00000000E+00
  0.00000000E+00  0.00000000E+00  0.00000000E+00
  0.00000000E+00  0.00000000E+00  0.00000000E+00
  0.00000000E+00  0.00000000E+00  0.00000000E+00
  0.00000000E+00  0.00000000E+00  0.00000000E+00
  0.00000000E+00  0.00000000E+00  0.00000000E+00
  0.00000000E+00  0.00000000E+00  0.00000000E+00
  0.00000000E+00  0.00000000E+00  0.00000000E+00
  0.00000000E+00  0.00000000E+00  0.00000000E+00
  0.00000000E+00  0.00000000E+00  0.00000000E+00
  0.00000000E+00  0.00000000E+00  0.00000000E+00
  0.00000000E+00  0.00000000E+00  0.00000000E+00
  0.00000000E+00  0.00000000E+00  0.00000000E+00
  0.00000000E+00  0.00000000E+00  0.00000000E+00
  0.00000000E+00  0.00000000E+00  0.00000000E+00
  0.00000000E+00  0.00000000E+00  0.00000000E+00
  0.00000000E+00  0.00000000E+00  0.00000000E+00
  0.00000000E+00  0.00000000E+00  0.00000000E+00
  0.00000000E+00  0.00000000E+00  0.00000000E+00
  0.00000000E+00  0.00000000E+00  0.00000000E+00
  0.00000000E+00  0.00000000E+00  0.00000000E+00
  0.00000000E+00  0.00000000E+00  0.00000000E+00
  0.00000000E+00  0.00000000E+00  0.00000000E+00
  0.00000000E+00  0.00000000E+00  0.00000000E+00
  0.00000000E+00  0.00000000E+00  0.00000000E+00
  0.00000000E+00  0.00000000E+00  0.00000000E+00
  0.00000000E+00  0.00000000E+00  0.00000000E+00
  0.00000000E+00  0.00000000E+00  0.00000000E+00
  0.00000000E+00  0.00000000E+00  0.00000000E+00
  0.00000000E+00  0.00000000E+00  0.00000000E+00
  0.00000000E+00  0.00000000E+00  0.00000000E+00
  0.00000000E+00  0.00000000E+00  0.00000000E+00
  0.00000000E+00  0.00000000E+00  0.00000000E+00
  0.00000000E+00  0.00000000E+00  0.00000000E+00
  0.00000000E+00  0.00000000E+00  0.00000000E+00
  0.00000000E+00  0.00000000E+00  0.00000000E+00
  0.00000000E+00  0.00000000E+00  0.00000000E+00
  0.00000000E+00  0.00000000E+00  0.00000000E+00
  0.00000000E+00  0.00000000E+00  0.00000000E+00
