Sodilite                                
   1.00000000000000     
     9.2715111006073325   -0.0099338826967582    0.0099338833571647
    -0.0099338833571647    9.2715111006073325   -0.0099338826967582
     0.0099338826967582   -0.0099338833571647    9.2715111006073325
   O    Na   Al   Si   Cl   K 
    24     3     6     6     2     5
Direct
  0.1386529849187958  0.4634616592872109  0.1487802161154242
  0.8511713821041000  0.5392187502783625  0.1557201533819572
  0.8597681276504712  0.4712081011243414  0.8500923033767956
  0.1468909209267364  0.5401892961519412  0.8418641997575317
  0.1557201533819572  0.1488286178959002  0.4607812497216371
  0.1487802161154242  0.8613470150812040  0.5365383407127892
  0.8418641997575316  0.8531090790732636  0.4598107038480590
  0.8500923033767956  0.1402318723495289  0.5287918988756590
  0.4598107038480590  0.1581358002424687  0.1468909209267364
  0.5287918988756590  0.1499076966232047  0.8597681276504712
  0.4607812497216371  0.8442798466180428  0.8511713821041000
  0.5365383407127892  0.8512197838845758  0.1386529849187958
  0.9685773412934923  0.6454090040895251  0.6503195470868406
  0.0291801245419389  0.3569319430022906  0.6531751612599451
  0.9670496287247414  0.3584935762372216  0.3460313288300090
  0.0310518283130696  0.6456929819081084  0.3448646038413264
  0.6415064237627790  0.6539686711699909  0.9670496287247414
  0.3543070180918910  0.6551353961586732  0.0310518283130696
  0.3545909959104753  0.3496804529131599  0.9685773412934923
  0.6430680569977090  0.3468248387400542  0.0291801245419389
  0.6531751612599451  0.9708198754580614  0.6430680569977090
  0.6503195470868406  0.0314226587065078  0.3545909959104753
  0.3448646038413264  0.9689481716869304  0.3543070180918910
  0.3460313288300090  0.0329503712752586  0.6415064237627790
  0.1966948961911080  0.1898531291943831  0.1967652515483052
  0.8101468708056170  0.8032347484516948  0.1966948961911080
  0.1967652515483052  0.8033051038088920  0.8101468708056170
  0.2474200091083415  0.5023253451233693 -0.0017727486156324
  0.7485998429735875  0.5022763147775751  0.0000532749236994
  0.0000532749236994  0.2514001570264121  0.4977236852224249
 -0.0017727486156324  0.7525799908916585  0.4976746548766306
  0.4976746548766306  0.0017727486156324  0.2474200091083415
  0.4977236852224249 -0.0000532749236994  0.7485998429735875
  0.2483084712992251  0.0026946174746652  0.4981280217555317
  0.7487702105770702 -0.0006503434861285  0.4967409505445891
  0.4967409505445891  0.2512297894229296  0.0006503434861285
  0.4981280217555317  0.7516915287007746 -0.0026946174746652
 -0.0026946174746652  0.5018719782444684  0.2483084712992251
  0.0006503434861285  0.5032590494554112  0.7487702105770702
  0.0285749757481403 -0.0285749757481403  0.0285749757481403
  0.4969992674203139  0.5030007325796859  0.4969992674203139
  0.8332382174802703  0.1667617825197300  0.8332382174802703
  0.6814354099668188  0.6816878762877552  0.6805877295332030
  0.3183121237122450  0.3194122704667970  0.6814354099668188
  0.6805877295332030  0.3185645900331814  0.3183121237122450
  0.3150586188728738  0.6849413811271264  0.3150586188728738
 
  0.00000000E+00  0.00000000E+00  0.00000000E+00
  0.00000000E+00  0.00000000E+00  0.00000000E+00
  0.00000000E+00  0.00000000E+00  0.00000000E+00
  0.00000000E+00  0.00000000E+00  0.00000000E+00
  0.00000000E+00  0.00000000E+00  0.00000000E+00
  0.00000000E+00  0.00000000E+00  0.00000000E+00
  0.00000000E+00  0.00000000E+00  0.00000000E+00
  0.00000000E+00  0.00000000E+00  0.00000000E+00
  0.00000000E+00  0.00000000E+00  0.00000000E+00
  0.00000000E+00  0.00000000E+00  0.00000000E+00
  0.00000000E+00  0.00000000E+00  0.00000000E+00
  0.00000000E+00  0.00000000E+00  0.00000000E+00
  0.00000000E+00  0.00000000E+00  0.00000000E+00
  0.00000000E+00  0.00000000E+00  0.00000000E+00
  0.00000000E+00  0.00000000E+00  0.00000000E+00
  0.00000000E+00  0.00000000E+00  0.00000000E+00
  0.00000000E+00  0.00000000E+00  0.00000000E+00
  0.00000000E+00  0.00000000E+00  0.00000000E+00
  0.00000000E+00  0.00000000E+00  0.00000000E+00
  0.00000000E+00  0.00000000E+00  0.00000000E+00
  0.00000000E+00  0.00000000E+00  0.00000000E+00
  0.00000000E+00  0.00000000E+00  0.00000000E+00
  0.00000000E+00  0.00000000E+00  0.00000000E+00
  0.00000000E+00  0.00000000E+00  0.00000000E+00
  0.00000000E+00  0.00000000E+00  0.00000000E+00
  0.00000000E+00  0.00000000E+00  0.00000000E+00
  0.00000000E+00  0.00000000E+00  0.00000000E+00
  0.00000000E+00  0.00000000E+00  0.00000000E+00
  0.00000000E+00  0.00000000E+00  0.00000000E+00
  0.00000000E+00  0.00000000E+00  0.00000000E+00
  0.00000000E+00  0.00000000E+00  0.00000000E+00
  0.00000000E+00  0.00000000E+00  0.00000000E+00
  0.00000000E+00  0.00000000E+00  0.00000000E+00
  0.00000000E+00  0.00000000E+00  0.00000000E+00
  0.00000000E+00  0.00000000E+00  0.00000000E+00
  0.00000000E+00  0.00000000E+00  0.00000000E+00
  0.00000000E+00  0.00000000E+00  0.00000000E+00
  0.00000000E+00  0.00000000E+00  0.00000000E+00
  0.00000000E+00  0.00000000E+00  0.00000000E+00
  0.00000000E+00  0.00000000E+00  0.00000000E+00
  0.00000000E+00  0.00000000E+00  0.00000000E+00
  0.00000000E+00  0.00000000E+00  0.00000000E+00
  0.00000000E+00  0.00000000E+00  0.00000000E+00
  0.00000000E+00  0.00000000E+00  0.00000000E+00
  0.00000000E+00  0.00000000E+00  0.00000000E+00
  0.00000000E+00  0.00000000E+00  0.00000000E+00
