Sodilite                                
   1.00000000000000     
     9.0385940451567119    0.0321386096613590    0.0002482312385609
     0.0321386096613590    9.0385940451567119   -0.0002482312385609
     0.0002458543596549   -0.0002458543596549    9.0332157920406555
   O    Na   Al   Si   Cl   K 
    24     6     6     6     2     2
Direct
  0.1352907360248358  0.4501566389161044  0.1485448964182194
  0.8548695727125630  0.5621925687680183  0.1573003830537305
  0.8639752608949793  0.4429244311638281  0.8580124252474022
  0.1453756047085078  0.5578020053884118  0.8462072094772949
  0.1462465754724152  0.1358492687955851  0.4541485163782987
  0.1545328320119819  0.8525746803269052  0.5610974294904287
  0.8554247379186382  0.8663290659346794  0.4415609918724266
  0.8437512882232019  0.1448839029630999  0.5618416325649528
  0.4515673292105213  0.1443198439415636  0.1384502357116374
  0.5584754225326212  0.1562572580653629  0.8554131677467192
  0.4416085622087526  0.8540246186818643  0.8669572809832776
  0.5616013077395093  0.8450119125773426  0.1456994787601421
  0.9378074312319817  0.6451304272874370  0.6573003830537302
  0.0498433610838956  0.3647092639751643  0.6485448964182191
  0.9421979946115882  0.3546243952914923  0.3462072094772949
  0.0570755688361720  0.6360247391050207  0.3580124252474022
  0.6336709340653206  0.6445752620813618  0.9415609918724265
  0.3551160970369002  0.6562487117767981  0.0618416325649521
  0.3641507312044150  0.3537534245275846  0.9541485163782992
  0.6474253196730948  0.3454671679880179  0.0610974294904285
  0.6549880874226574  0.9383986922604907  0.6456994787601420
  0.6459753813181357  0.0583914377912474  0.3669572809832781
  0.3437427419346371  0.9415245774673788  0.3554131677467191
  0.3556801560584364  0.0484326707894788  0.6384502357116379
  0.8127723947590041  0.8133099300206357  0.1887562844499634
  0.8150417121944848  0.1850815025652696  0.8174042509866967
  0.1838213605112113  0.8145490333640880  0.8165686664584347
  0.6866900699793643  0.6872276052409959  0.6887562844499637
  0.6854509666359120  0.3161786394887887  0.3165686664584346
  0.3149184974347307  0.6849582878055152  0.3174042509866967
  0.2500769517328828  0.5039002058278882  0.0027846709852942
  0.7499162486791819  0.5007652638402589  0.0053055242521082
 -0.0039002058278886  0.2499230482671167  0.5027846709852942
 -0.0007652638402589  0.7500837513208179  0.5053055242521081
  0.5009525751086281 -0.0036678150940250  0.2534495891318467
  0.5036678150940247 -0.0009525751086278  0.7534495891318462
  0.2499954013267522 -0.0050057975561511  0.5026990825015791
  0.7500285178501989  0.0008982400122152  0.5046054412833038
  0.5050057975561514  0.2500045986732480  0.0026990825015795
  0.4991017599877848  0.7499714821498011  0.0046054412833034
 -0.0030656618328025  0.5010153890032225  0.2532189086477390
 -0.0010153890032227  0.5030656618328023  0.7532189086477390
 -0.0396353404263974 -0.0393693524633493 -0.0344185195326503
  0.5393693524633493  0.5396353404263974  0.4655814804673498
  0.1540394294447548  0.1528600239636084  0.1543924531311554
  0.3471399760363919  0.3459605705552452  0.6543924531311559
 
  0.00000000E+00  0.00000000E+00  0.00000000E+00
  0.00000000E+00  0.00000000E+00  0.00000000E+00
  0.00000000E+00  0.00000000E+00  0.00000000E+00
  0.00000000E+00  0.00000000E+00  0.00000000E+00
  0.00000000E+00  0.00000000E+00  0.00000000E+00
  0.00000000E+00  0.00000000E+00  0.00000000E+00
  0.00000000E+00  0.00000000E+00  0.00000000E+00
  0.00000000E+00  0.00000000E+00  0.00000000E+00
  0.00000000E+00  0.00000000E+00  0.00000000E+00
  0.00000000E+00  0.00000000E+00  0.00000000E+00
  0.00000000E+00  0.00000000E+00  0.00000000E+00
  0.00000000E+00  0.00000000E+00  0.00000000E+00
  0.00000000E+00  0.00000000E+00  0.00000000E+00
  0.00000000E+00  0.00000000E+00  0.00000000E+00
  0.00000000E+00  0.00000000E+00  0.00000000E+00
  0.00000000E+00  0.00000000E+00  0.00000000E+00
  0.00000000E+00  0.00000000E+00  0.00000000E+00
  0.00000000E+00  0.00000000E+00  0.00000000E+00
  0.00000000E+00  0.00000000E+00  0.00000000E+00
  0.00000000E+00  0.00000000E+00  0.00000000E+00
  0.00000000E+00  0.00000000E+00  0.00000000E+00
  0.00000000E+00  0.00000000E+00  0.00000000E+00
  0.00000000E+00  0.00000000E+00  0.00000000E+00
  0.00000000E+00  0.00000000E+00  0.00000000E+00
  0.00000000E+00  0.00000000E+00  0.00000000E+00
  0.00000000E+00  0.00000000E+00  0.00000000E+00
  0.00000000E+00  0.00000000E+00  0.00000000E+00
  0.00000000E+00  0.00000000E+00  0.00000000E+00
  0.00000000E+00  0.00000000E+00  0.00000000E+00
  0.00000000E+00  0.00000000E+00  0.00000000E+00
  0.00000000E+00  0.00000000E+00  0.00000000E+00
  0.00000000E+00  0.00000000E+00  0.00000000E+00
  0.00000000E+00  0.00000000E+00  0.00000000E+00
  0.00000000E+00  0.00000000E+00  0.00000000E+00
  0.00000000E+00  0.00000000E+00  0.00000000E+00
  0.00000000E+00  0.00000000E+00  0.00000000E+00
  0.00000000E+00  0.00000000E+00  0.00000000E+00
  0.00000000E+00  0.00000000E+00  0.00000000E+00
  0.00000000E+00  0.00000000E+00  0.00000000E+00
  0.00000000E+00  0.00000000E+00  0.00000000E+00
  0.00000000E+00  0.00000000E+00  0.00000000E+00
  0.00000000E+00  0.00000000E+00  0.00000000E+00
  0.00000000E+00  0.00000000E+00  0.00000000E+00
  0.00000000E+00  0.00000000E+00  0.00000000E+00
  0.00000000E+00  0.00000000E+00  0.00000000E+00
  0.00000000E+00  0.00000000E+00  0.00000000E+00
