Sodilite                                
   1.00000000000000     
     9.2771434639496775    0.0002056574400049    0.0156475801683199
     0.0002060752009824    9.2660597960931224    0.0002060752009824
     0.0156475801683199    0.0002056574400049    9.2771434639496775
   O    Na   Al   Si   Cl   K 
    24     2     6     6     2     6
Direct
  0.1402565240207976  0.4719097323692159  0.1481124822555379
  0.8515791190813868  0.5300387158928651  0.1571524007152766
  0.8621307648517090  0.4715387980659755  0.8500474505704367
  0.1483017611032585  0.5451331866597996  0.8426815093214400
  0.1436553564194896  0.1366328491190574  0.4679852610553401
  0.1624294281059717  0.8511674714065253  0.5415768775566934
  0.8537451541390555  0.8650789492011836  0.4732044951790546
  0.8406348632967079  0.1540680188481369  0.5308624341359928
  0.4680190229487491  0.1642170093794205  0.1500813741652582
  0.5325305858939875  0.1470218366156615  0.8644058044974152
  0.4596635401495398  0.8422214138596912  0.8478630488249530
  0.5260954055664880  0.8568162006075595  0.1364737887353618
  0.9679852610553394  0.6366328491190575  0.6436553564194895
  0.0415768775566934  0.3511674714065259  0.6624294281059717
  0.9732044951790541  0.3650789492011839  0.3537451541390557
  0.0308624341359928  0.6540680188481370  0.3406348632967079
  0.6500813741652584  0.6642170093794210  0.9680190229487490
  0.3644058044974153  0.6470218366156620  0.0325305858939871
  0.3478630488249527  0.3422214138596909  0.9596635401495397
  0.6364737887353622  0.3568162006075595  0.0260954055664879
  0.6481124822555383  0.9719097323692163  0.6402565240207976
  0.6571524007152763  0.0300387158928650  0.3515791190813869
  0.3500474505704361  0.9715387980659761  0.3621307648517094
  0.3426815093214403  0.0451331866597995  0.6483017611032582
  0.2072138660124339  0.7940353475861852  0.7938897913679736
  0.2938897913679737  0.2940353475861853  0.7072138660124333
  0.2499801126812426  0.5020247983355113 -0.0038191338025099
  0.7500844505680314  0.5058926931151881 -0.0008149325389883
  0.0003634088800242  0.2536422378561179  0.5040899666270715
  0.0040899666270714  0.7536422378561172  0.5003634088800240
  0.4991850674610118  0.0058926931151882  0.2500844505680316
  0.4961808661974901  0.0020247983355112  0.7499801126812428
  0.2498519463206727  0.0017100625130385  0.5047669375477184
  0.7499413295428280  0.0054979625419851  0.4997017277921104
  0.4961544140744550  0.2533652118600765 -0.0003535078438867
  0.4996464921561133  0.7533652118600772 -0.0038455859255451
 -0.0002982722078895  0.5054979625419854  0.2499413295428279
  0.0047669375477184  0.5017100625130384  0.7498519463206724
  0.0388453158669136 -0.0327785512480445 -0.0387419431708449
  0.4612580568291551  0.4672214487519555  0.5388453158669139
  0.1738342879204335  0.1758324451494792  0.1761657410170532
  0.8273065177581218  0.8292891591551159  0.1723069975597724
  0.8242169877388031  0.1756444511102548  0.8255272654906707
  0.6761657410170532  0.6758324451494789  0.6738342879204331
  0.6723069975597727  0.3292891591551153  0.3273065177581212
  0.3255272654906702  0.6756444511102547  0.3242169877388034
 
  0.00000000E+00  0.00000000E+00  0.00000000E+00
  0.00000000E+00  0.00000000E+00  0.00000000E+00
  0.00000000E+00  0.00000000E+00  0.00000000E+00
  0.00000000E+00  0.00000000E+00  0.00000000E+00
  0.00000000E+00  0.00000000E+00  0.00000000E+00
  0.00000000E+00  0.00000000E+00  0.00000000E+00
  0.00000000E+00  0.00000000E+00  0.00000000E+00
  0.00000000E+00  0.00000000E+00  0.00000000E+00
  0.00000000E+00  0.00000000E+00  0.00000000E+00
  0.00000000E+00  0.00000000E+00  0.00000000E+00
  0.00000000E+00  0.00000000E+00  0.00000000E+00
  0.00000000E+00  0.00000000E+00  0.00000000E+00
  0.00000000E+00  0.00000000E+00  0.00000000E+00
  0.00000000E+00  0.00000000E+00  0.00000000E+00
  0.00000000E+00  0.00000000E+00  0.00000000E+00
  0.00000000E+00  0.00000000E+00  0.00000000E+00
  0.00000000E+00  0.00000000E+00  0.00000000E+00
  0.00000000E+00  0.00000000E+00  0.00000000E+00
  0.00000000E+00  0.00000000E+00  0.00000000E+00
  0.00000000E+00  0.00000000E+00  0.00000000E+00
  0.00000000E+00  0.00000000E+00  0.00000000E+00
  0.00000000E+00  0.00000000E+00  0.00000000E+00
  0.00000000E+00  0.00000000E+00  0.00000000E+00
  0.00000000E+00  0.00000000E+00  0.00000000E+00
  0.00000000E+00  0.00000000E+00  0.00000000E+00
  0.00000000E+00  0.00000000E+00  0.00000000E+00
  0.00000000E+00  0.00000000E+00  0.00000000E+00
  0.00000000E+00  0.00000000E+00  0.00000000E+00
  0.00000000E+00  0.00000000E+00  0.00000000E+00
  0.00000000E+00  0.00000000E+00  0.00000000E+00
  0.00000000E+00  0.00000000E+00  0.00000000E+00
  0.00000000E+00  0.00000000E+00  0.00000000E+00
  0.00000000E+00  0.00000000E+00  0.00000000E+00
  0.00000000E+00  0.00000000E+00  0.00000000E+00
  0.00000000E+00  0.00000000E+00  0.00000000E+00
  0.00000000E+00  0.00000000E+00  0.00000000E+00
  0.00000000E+00  0.00000000E+00  0.00000000E+00
  0.00000000E+00  0.00000000E+00  0.00000000E+00
  0.00000000E+00  0.00000000E+00  0.00000000E+00
  0.00000000E+00  0.00000000E+00  0.00000000E+00
  0.00000000E+00  0.00000000E+00  0.00000000E+00
  0.00000000E+00  0.00000000E+00  0.00000000E+00
  0.00000000E+00  0.00000000E+00  0.00000000E+00
  0.00000000E+00  0.00000000E+00  0.00000000E+00
  0.00000000E+00  0.00000000E+00  0.00000000E+00
  0.00000000E+00  0.00000000E+00  0.00000000E+00
