Sodilite                                
   1.00000000000000     
     9.0958491351015578   -0.0146647234662835   -0.0160107500623857
    -0.0146577736035485    9.0946422676502472   -0.0148356941720077
    -0.0160102161703375   -0.0148330646118428    9.1069856172905332
   O    Na   Al   Si   Cl   K 
    24     5     6     6     2     3
Direct
  0.1394641247087721  0.4438801144930364  0.1503873196713667
  0.8595370540361639  0.5559696403081255  0.1493535142427375
  0.8556125616313364  0.4537411932472921  0.8481939034098479
  0.1413943760197105  0.5437907913851350  0.8464936811428578
  0.1625478306958119  0.1525774436797443  0.4443706412117810
  0.1372533889618488  0.8687863669267732  0.5412478190489186
  0.8357522437457260  0.8459944445465483  0.4415866923274889
  0.8591056252374853  0.1279941061947051  0.5428152401757842
  0.4451411805873499  0.1491383196271057  0.1419202270349686
  0.5432982630270584  0.1509450031393029  0.8575153781559587
  0.4525153721708323  0.8472859725488007  0.8581370679905148
  0.5562880508482376  0.8482312546966473  0.1398709976630962
  0.9470753072049652  0.6472526782999533  0.6539571702189356
  0.0406598378636699  0.3606619868755209  0.6446784913503828
  0.9414672098945787  0.3548571911665034  0.3427115352288623
  0.0557613926496432  0.6339094497827729  0.3522918107376687
  0.6347140767537597  0.6439853802900584  0.9466361241834345
  0.3523343400626183  0.6568294841385202  0.0541828066074289
  0.3632855976991571  0.3542583504075852  0.9556420214371604
  0.6469001539479556  0.3412288045695956  0.0548676181425792
  0.6565634983204317  0.9466303098400924  0.6450275222898596
  0.6439262057782089  0.0543136107841769  0.3633715877969948
  0.3446543587074646  0.9423414414868572  0.3524285088903449
  0.3504072598998680  0.0418668115608951  0.6356865494774326
  0.1934021548664930  0.1922966382824564  0.1919684959346685
  0.8027570408883865  0.8024540392722277  0.1943872812109849
  0.6868345371301816  0.6858463677455900  0.6825230176222038
  0.6882218576793100  0.3103235214582962  0.3103184052225158
  0.3114594832178720  0.6890029668032360  0.3098490940878909
  0.2483526801126666  0.5006514388415257  0.0013795503808875
  0.7482282165151202  0.4980618792363334  0.0010273489638989
  0.0003613744655092  0.2481569265914076  0.4926914739102833
 -0.0059248290688594  0.7483113631315114  0.4953883019424835
  0.4981492015944056 -0.0027080146976384  0.2489695951515637
  0.5004271429488044 -0.0029468294314518  0.7477877388661064
  0.2483538718379342  0.0007519741106354  0.4928670080307046
  0.7486268882926536 -0.0061416942619416  0.4969376156693633
  0.4998678445503934  0.2485983867465599  0.0022313483682781
  0.4986621962432781  0.7486172714579981  0.0002372351980502
 -0.0016939367553697  0.4974116162716294  0.2485814018522390
 -0.0037125437553913  0.5009409315402843  0.7477329491459778
 -0.0026110217872256 -0.0028298055813741  0.0795043969413503
  0.5337422755918290  0.5335490045082575  0.4595670388186880
  0.8395973407363243  0.1593576505278309  0.8387771452275733
  0.1586156114532858  0.8401905949259072  0.8376284636402181
  0.3426233027897435  0.3436336225249734  0.6562708653776631
 
  0.00000000E+00  0.00000000E+00  0.00000000E+00
  0.00000000E+00  0.00000000E+00  0.00000000E+00
  0.00000000E+00  0.00000000E+00  0.00000000E+00
  0.00000000E+00  0.00000000E+00  0.00000000E+00
  0.00000000E+00  0.00000000E+00  0.00000000E+00
  0.00000000E+00  0.00000000E+00  0.00000000E+00
  0.00000000E+00  0.00000000E+00  0.00000000E+00
  0.00000000E+00  0.00000000E+00  0.00000000E+00
  0.00000000E+00  0.00000000E+00  0.00000000E+00
  0.00000000E+00  0.00000000E+00  0.00000000E+00
  0.00000000E+00  0.00000000E+00  0.00000000E+00
  0.00000000E+00  0.00000000E+00  0.00000000E+00
  0.00000000E+00  0.00000000E+00  0.00000000E+00
  0.00000000E+00  0.00000000E+00  0.00000000E+00
  0.00000000E+00  0.00000000E+00  0.00000000E+00
  0.00000000E+00  0.00000000E+00  0.00000000E+00
  0.00000000E+00  0.00000000E+00  0.00000000E+00
  0.00000000E+00  0.00000000E+00  0.00000000E+00
  0.00000000E+00  0.00000000E+00  0.00000000E+00
  0.00000000E+00  0.00000000E+00  0.00000000E+00
  0.00000000E+00  0.00000000E+00  0.00000000E+00
  0.00000000E+00  0.00000000E+00  0.00000000E+00
  0.00000000E+00  0.00000000E+00  0.00000000E+00
  0.00000000E+00  0.00000000E+00  0.00000000E+00
  0.00000000E+00  0.00000000E+00  0.00000000E+00
  0.00000000E+00  0.00000000E+00  0.00000000E+00
  0.00000000E+00  0.00000000E+00  0.00000000E+00
  0.00000000E+00  0.00000000E+00  0.00000000E+00
  0.00000000E+00  0.00000000E+00  0.00000000E+00
  0.00000000E+00  0.00000000E+00  0.00000000E+00
  0.00000000E+00  0.00000000E+00  0.00000000E+00
  0.00000000E+00  0.00000000E+00  0.00000000E+00
  0.00000000E+00  0.00000000E+00  0.00000000E+00
  0.00000000E+00  0.00000000E+00  0.00000000E+00
  0.00000000E+00  0.00000000E+00  0.00000000E+00
  0.00000000E+00  0.00000000E+00  0.00000000E+00
  0.00000000E+00  0.00000000E+00  0.00000000E+00
  0.00000000E+00  0.00000000E+00  0.00000000E+00
  0.00000000E+00  0.00000000E+00  0.00000000E+00
  0.00000000E+00  0.00000000E+00  0.00000000E+00
  0.00000000E+00  0.00000000E+00  0.00000000E+00
  0.00000000E+00  0.00000000E+00  0.00000000E+00
  0.00000000E+00  0.00000000E+00  0.00000000E+00
  0.00000000E+00  0.00000000E+00  0.00000000E+00
  0.00000000E+00  0.00000000E+00  0.00000000E+00
  0.00000000E+00  0.00000000E+00  0.00000000E+00
