Sodilite                                
   1.00000000000000     
     9.1729118336363484    0.0031166044514645    0.0031166046292766
     0.0031166046292766    9.1729118336363484    0.0031166044514645
     0.0031166044514645    0.0031166046292766    9.1729118336363484
   O    Na   Al   Si   Cl   K 
    24     4     6     6     2     4
Direct
  0.1374217208360917  0.4655335322704656  0.1465560016141448
  0.8502276796516619  0.5482933977910761  0.1568416444435879
  0.8649608464088907  0.4498721862110556  0.8545812905914030
  0.1475244454916131  0.5485426144111823  0.8402802146606050
  0.1465560016141448  0.1374217208360917  0.4655335322704656
  0.1568416444435879  0.8502276796516619  0.5482933977910761
  0.8545812905914030  0.8649608464088907  0.4498721862110556
  0.8402802146606050  0.1475244454916131  0.5485426144111823
  0.4655335322704656  0.1465560016141448  0.1374217208360917
  0.5482933977910761  0.1568416444435879  0.8502276796516619
  0.4498721862110556  0.8545812905914030  0.8649608464088907
  0.5485426144111823  0.8402802146606050  0.1475244454916131
  0.9484193157370648  0.6496604700414250  0.6595408818256208
  0.0389561634737299  0.3660822574282168  0.6442651601243911
  0.9600464344140127  0.3498262967785736  0.3396699692214873
  0.0374165111820134  0.6364432741727567  0.3558923264835092
  0.6496604700414250  0.6595408818256208  0.9484193157370648
  0.3660822574282168  0.6442651601243911  0.0389561634737299
  0.3498262967785736  0.3396699692214873  0.9600464344140127
  0.6364432741727567  0.3558923264835092  0.0374165111820133
  0.6595408818256208  0.9484193157370648  0.6496604700414250
  0.6442651601243911  0.0389561634737299  0.3660822574282168
  0.3396699692214873  0.9600464344140127  0.3498262967785736
  0.3558923264835092  0.0374165111820133  0.6364432741727567
  0.8075930850669982  0.8068657367386871  0.1899011593939698
  0.8068657367386871  0.1899011593939698  0.8075930850669982
  0.1899011593939698  0.8075930850669982  0.8068657367386871
  0.7086773913050883  0.7086773913050883  0.7086773913050883
  0.2496793544541417  0.4996375428568687 -0.0041908608917433
  0.7504795350107841  0.5035983478223427 -0.0016362252094513
 -0.0041908608917433  0.2496793544541417  0.4996375428568687
 -0.0016362252094513  0.7504795350107841  0.5035983478223427
  0.4996375428568687 -0.0041908608917433  0.2496793544541417
  0.5035983478223427 -0.0016362252094513  0.7504795350107841
  0.2494814472383131 -0.0039062290300154  0.5001359315573024
  0.7497710503975822 -0.0007584151827917  0.5035586932848658
  0.5001359315573024  0.2494814472383131 -0.0039062290300154
  0.5035586932848658  0.7497710503975822 -0.0007584151827917
 -0.0039062290300154  0.5001359315573024  0.2494814472383131
 -0.0007584151827917  0.5035586932848658  0.7497710503975822
 -0.0340783892002916 -0.0340783892002916 -0.0340783892002916
  0.5421756190324434  0.5421756190324434  0.5421756190324434
  0.1596104638963938  0.1596104638963938  0.1596104638963938
  0.3302541946233238  0.3294306029405554  0.6668653286300537
  0.6668653286300537  0.3302541946233238  0.3294306029405554
  0.3294306029405554  0.6668653286300537  0.3302541946233238
 
  0.00000000E+00  0.00000000E+00  0.00000000E+00
  0.00000000E+00  0.00000000E+00  0.00000000E+00
  0.00000000E+00  0.00000000E+00  0.00000000E+00
  0.00000000E+00  0.00000000E+00  0.00000000E+00
  0.00000000E+00  0.00000000E+00  0.00000000E+00
  0.00000000E+00  0.00000000E+00  0.00000000E+00
  0.00000000E+00  0.00000000E+00  0.00000000E+00
  0.00000000E+00  0.00000000E+00  0.00000000E+00
  0.00000000E+00  0.00000000E+00  0.00000000E+00
  0.00000000E+00  0.00000000E+00  0.00000000E+00
  0.00000000E+00  0.00000000E+00  0.00000000E+00
  0.00000000E+00  0.00000000E+00  0.00000000E+00
  0.00000000E+00  0.00000000E+00  0.00000000E+00
  0.00000000E+00  0.00000000E+00  0.00000000E+00
  0.00000000E+00  0.00000000E+00  0.00000000E+00
  0.00000000E+00  0.00000000E+00  0.00000000E+00
  0.00000000E+00  0.00000000E+00  0.00000000E+00
  0.00000000E+00  0.00000000E+00  0.00000000E+00
  0.00000000E+00  0.00000000E+00  0.00000000E+00
  0.00000000E+00  0.00000000E+00  0.00000000E+00
  0.00000000E+00  0.00000000E+00  0.00000000E+00
  0.00000000E+00  0.00000000E+00  0.00000000E+00
  0.00000000E+00  0.00000000E+00  0.00000000E+00
  0.00000000E+00  0.00000000E+00  0.00000000E+00
  0.00000000E+00  0.00000000E+00  0.00000000E+00
  0.00000000E+00  0.00000000E+00  0.00000000E+00
  0.00000000E+00  0.00000000E+00  0.00000000E+00
  0.00000000E+00  0.00000000E+00  0.00000000E+00
  0.00000000E+00  0.00000000E+00  0.00000000E+00
  0.00000000E+00  0.00000000E+00  0.00000000E+00
  0.00000000E+00  0.00000000E+00  0.00000000E+00
  0.00000000E+00  0.00000000E+00  0.00000000E+00
  0.00000000E+00  0.00000000E+00  0.00000000E+00
  0.00000000E+00  0.00000000E+00  0.00000000E+00
  0.00000000E+00  0.00000000E+00  0.00000000E+00
  0.00000000E+00  0.00000000E+00  0.00000000E+00
  0.00000000E+00  0.00000000E+00  0.00000000E+00
  0.00000000E+00  0.00000000E+00  0.00000000E+00
  0.00000000E+00  0.00000000E+00  0.00000000E+00
  0.00000000E+00  0.00000000E+00  0.00000000E+00
  0.00000000E+00  0.00000000E+00  0.00000000E+00
  0.00000000E+00  0.00000000E+00  0.00000000E+00
  0.00000000E+00  0.00000000E+00  0.00000000E+00
  0.00000000E+00  0.00000000E+00  0.00000000E+00
  0.00000000E+00  0.00000000E+00  0.00000000E+00
  0.00000000E+00  0.00000000E+00  0.00000000E+00
