Sodilite                                
   1.00000000000000     
     9.1833423027961274    0.0238684691148687    0.0223085349717859
     0.0238676303730235    9.1729737460018477   -0.0016177691150949
     0.0223096022069430   -0.0016197177102107    9.1743252763015715
   O    Na   Al   Si   Cl   K 
    24     4     6     6     2     4
Direct
  0.1356650185598550  0.4614104208539062  0.1472408905356690
  0.8506251594876291  0.5429598429910055  0.1626383434562785
  0.8649336038171974  0.4655823412009486  0.8565819835915713
  0.1511461541422581  0.5508883251309687  0.8439723619038856
  0.1444883944263105  0.1359217865408441  0.4613754194427466
  0.1601541060795630  0.8525042978476489  0.5524331019598978
  0.8538328220673972  0.8659131985495083  0.4652267194440616
  0.8417341512383300  0.1536810993765461  0.5416035945134300
  0.4571648916021280  0.1635192625976067  0.1533648868866289
  0.5387689113252154  0.1466838747238358  0.8682339859669377
  0.4514819643138528  0.8411851595108256  0.8510749737078307
  0.5372510949996955  0.8605227187821929  0.1364218895904888
  0.9598849835536576  0.6363701639584664  0.6462610883057223
  0.0497489214095018  0.3529016480948363  0.6627123557647620
  0.9584814144268640  0.3646647171027771  0.3554804834778779
  0.0478615713078483  0.6516278981703694  0.3445501121582168
  0.6387329577902510  0.6530504655492707  0.9630074417985123
  0.3549675800005583  0.6567398262989168  0.0533141507694764
  0.3603792607438497  0.3538096145730671  0.9546800816125249
  0.6467592200515344  0.3467016905175161  0.0456244492205635
  0.6481241404949702  0.9639896397882087  0.6420858916311224
  0.6558986330659854  0.0465578371435835  0.3548297676181337
  0.3492908753353528  0.9537003594912304  0.3632438050929914
  0.3460144133397405  0.0525478879554587  0.6463915202611987
  0.2051946250209132  0.7954433959301795  0.7965262006239152
  0.3076446204415564  0.3084373105506197  0.6916989478486082
  0.6825217905814526  0.3128857628966885  0.3127382763340882
  0.3061715311205739  0.6904884785020439  0.3087829481183973
  0.2507743647982958  0.5055060117345795  0.0014088877656122
  0.7499929907157256  0.5033946059281926  0.0059056489932370
  0.0001646799793495  0.2537635700643033  0.5058529967115459
  0.0043363593684723  0.7532298692584742  0.5028459737074756
  0.4983617706408171  0.0060840713205414  0.2539739222990491
  0.4961792261753875  0.0013031279244275  0.7531610903341468
  0.2501473505671931 -0.0001818784754391  0.5059962594882697
  0.7497847150189902  0.0070384555293966  0.5019915331127047
  0.4998477720940877  0.2534939425935895  0.0055579591904736
  0.4956487292020015  0.7532926167018188  0.0014238306383786
 -0.0009309820968472  0.5055509784603258  0.2533419349423474
  0.0057577123075701  0.5022099793364356  0.7530589460738831
  0.0408375048881093 -0.0376446974656391 -0.0374616472696324
  0.4650198297433210  0.4713388925382666  0.4716577066337014
  0.1682386599552927  0.1724974968964249  0.1728646408851124
  0.8283701634850358  0.8339942343324338  0.1711456564212886
  0.8296269277397603  0.1715839773294550  0.8330110601357313
  0.6629194146733951  0.6628557213633426  0.6621679283011381
 
  0.00000000E+00  0.00000000E+00  0.00000000E+00
  0.00000000E+00  0.00000000E+00  0.00000000E+00
  0.00000000E+00  0.00000000E+00  0.00000000E+00
  0.00000000E+00  0.00000000E+00  0.00000000E+00
  0.00000000E+00  0.00000000E+00  0.00000000E+00
  0.00000000E+00  0.00000000E+00  0.00000000E+00
  0.00000000E+00  0.00000000E+00  0.00000000E+00
  0.00000000E+00  0.00000000E+00  0.00000000E+00
  0.00000000E+00  0.00000000E+00  0.00000000E+00
  0.00000000E+00  0.00000000E+00  0.00000000E+00
  0.00000000E+00  0.00000000E+00  0.00000000E+00
  0.00000000E+00  0.00000000E+00  0.00000000E+00
  0.00000000E+00  0.00000000E+00  0.00000000E+00
  0.00000000E+00  0.00000000E+00  0.00000000E+00
  0.00000000E+00  0.00000000E+00  0.00000000E+00
  0.00000000E+00  0.00000000E+00  0.00000000E+00
  0.00000000E+00  0.00000000E+00  0.00000000E+00
  0.00000000E+00  0.00000000E+00  0.00000000E+00
  0.00000000E+00  0.00000000E+00  0.00000000E+00
  0.00000000E+00  0.00000000E+00  0.00000000E+00
  0.00000000E+00  0.00000000E+00  0.00000000E+00
  0.00000000E+00  0.00000000E+00  0.00000000E+00
  0.00000000E+00  0.00000000E+00  0.00000000E+00
  0.00000000E+00  0.00000000E+00  0.00000000E+00
  0.00000000E+00  0.00000000E+00  0.00000000E+00
  0.00000000E+00  0.00000000E+00  0.00000000E+00
  0.00000000E+00  0.00000000E+00  0.00000000E+00
  0.00000000E+00  0.00000000E+00  0.00000000E+00
  0.00000000E+00  0.00000000E+00  0.00000000E+00
  0.00000000E+00  0.00000000E+00  0.00000000E+00
  0.00000000E+00  0.00000000E+00  0.00000000E+00
  0.00000000E+00  0.00000000E+00  0.00000000E+00
  0.00000000E+00  0.00000000E+00  0.00000000E+00
  0.00000000E+00  0.00000000E+00  0.00000000E+00
  0.00000000E+00  0.00000000E+00  0.00000000E+00
  0.00000000E+00  0.00000000E+00  0.00000000E+00
  0.00000000E+00  0.00000000E+00  0.00000000E+00
  0.00000000E+00  0.00000000E+00  0.00000000E+00
  0.00000000E+00  0.00000000E+00  0.00000000E+00
  0.00000000E+00  0.00000000E+00  0.00000000E+00
  0.00000000E+00  0.00000000E+00  0.00000000E+00
  0.00000000E+00  0.00000000E+00  0.00000000E+00
  0.00000000E+00  0.00000000E+00  0.00000000E+00
  0.00000000E+00  0.00000000E+00  0.00000000E+00
  0.00000000E+00  0.00000000E+00  0.00000000E+00
  0.00000000E+00  0.00000000E+00  0.00000000E+00
