Sodilite                                
   1.00000000000000     
     8.9342971504155351    0.0000000000000000   -0.0000000000000000
     0.0000000000000000    8.9342971504155351   -0.0000000000000000
    -0.0000000000000000    0.0000000000000000    8.9342971504155351
   O    Na   Al   Si   Cl
    24     8     6     6     2
Direct
  0.1387589137078031  0.4348522073383855  0.1490021625870940
  0.8612410862921969  0.5651477926616145  0.1490021625870940
  0.8612410862921969  0.4348522073383855  0.8509978374129059
  0.1387589137078031  0.5651477926616145  0.8509978374129059
  0.1490021625870940  0.1387589137078031  0.4348522073383855
  0.1490021625870940  0.8612410862921969  0.5651477926616145
  0.8509978374129059  0.8612410862921969  0.4348522073383855
  0.8509978374129059  0.1387589137078031  0.5651477926616145
  0.4348522073383855  0.1490021625870940  0.1387589137078031
  0.5651477926616145  0.1490021625870940  0.8612410862921969
  0.4348522073383855  0.8509978374129059  0.8612410862921969
  0.5651477926616145  0.8509978374129060  0.1387589137078031
  0.9348522073383855  0.6387589137078031  0.6490021625870941
  0.0651477926616145  0.3612410862921970  0.6490021625870941
  0.9348522073383855  0.3612410862921970  0.3509978374129059
  0.0651477926616145  0.6387589137078031  0.3509978374129059
  0.6387589137078031  0.6490021625870941  0.9348522073383855
  0.3612410862921970  0.6490021625870941  0.0651477926616145
  0.3612410862921970  0.3509978374129059  0.9348522073383855
  0.6387589137078031  0.3509978374129059  0.0651477926616145
  0.6490021625870941  0.9348522073383855  0.6387589137078031
  0.6490021625870940  0.0651477926616145  0.3612410862921970
  0.3509978374129059  0.9348522073383855  0.3612410862921970
  0.3509978374129059  0.0651477926616145  0.6387589137078031
  0.1770338782905586  0.1770338782905586  0.1770338782905586
  0.8229661217094414  0.8229661217094414  0.1770338782905586
  0.8229661217094414  0.1770338782905586  0.8229661217094414
  0.1770338782905586  0.8229661217094414  0.8229661217094414
  0.6770338782905586  0.6770338782905586  0.6770338782905586
  0.3229661217094413  0.3229661217094413  0.6770338782905586
  0.6770338782905586  0.3229661217094413  0.3229661217094413
  0.3229661217094413  0.6770338782905586  0.3229661217094413
  0.2500000000000000  0.5000000000000000  0.0000000000000000
  0.7500000000000000  0.5000000000000000  0.0000000000000000
  0.0000000000000000  0.2500000000000000  0.5000000000000000
  0.0000000000000000  0.7500000000000000  0.5000000000000000
  0.5000000000000000  0.0000000000000000  0.2500000000000000
  0.5000000000000000  0.0000000000000000  0.7500000000000000
  0.2500000000000000  0.0000000000000000  0.5000000000000000
  0.7500000000000000  0.0000000000000000  0.5000000000000000
  0.5000000000000000  0.2500000000000000  0.0000000000000000
  0.5000000000000000  0.7500000000000000  0.0000000000000000
  0.0000000000000000  0.5000000000000000  0.2500000000000000
  0.0000000000000000  0.5000000000000000  0.7500000000000000
  0.0000000000000000  0.0000000000000000  0.0000000000000000
  0.5000000000000000  0.5000000000000000  0.5000000000000000
 
  0.00000000E+00  0.00000000E+00  0.00000000E+00
  0.00000000E+00  0.00000000E+00  0.00000000E+00
  0.00000000E+00  0.00000000E+00  0.00000000E+00
  0.00000000E+00  0.00000000E+00  0.00000000E+00
  0.00000000E+00  0.00000000E+00  0.00000000E+00
  0.00000000E+00  0.00000000E+00  0.00000000E+00
  0.00000000E+00  0.00000000E+00  0.00000000E+00
  0.00000000E+00  0.00000000E+00  0.00000000E+00
  0.00000000E+00  0.00000000E+00  0.00000000E+00
  0.00000000E+00  0.00000000E+00  0.00000000E+00
  0.00000000E+00  0.00000000E+00  0.00000000E+00
  0.00000000E+00  0.00000000E+00  0.00000000E+00
  0.00000000E+00  0.00000000E+00  0.00000000E+00
  0.00000000E+00  0.00000000E+00  0.00000000E+00
  0.00000000E+00  0.00000000E+00  0.00000000E+00
  0.00000000E+00  0.00000000E+00  0.00000000E+00
  0.00000000E+00  0.00000000E+00  0.00000000E+00
  0.00000000E+00  0.00000000E+00  0.00000000E+00
  0.00000000E+00  0.00000000E+00  0.00000000E+00
  0.00000000E+00  0.00000000E+00  0.00000000E+00
  0.00000000E+00  0.00000000E+00  0.00000000E+00
  0.00000000E+00  0.00000000E+00  0.00000000E+00
  0.00000000E+00  0.00000000E+00  0.00000000E+00
  0.00000000E+00  0.00000000E+00  0.00000000E+00
  0.00000000E+00  0.00000000E+00  0.00000000E+00
  0.00000000E+00  0.00000000E+00  0.00000000E+00
  0.00000000E+00  0.00000000E+00  0.00000000E+00
  0.00000000E+00  0.00000000E+00  0.00000000E+00
  0.00000000E+00  0.00000000E+00  0.00000000E+00
  0.00000000E+00  0.00000000E+00  0.00000000E+00
  0.00000000E+00  0.00000000E+00  0.00000000E+00
  0.00000000E+00  0.00000000E+00  0.00000000E+00
  0.00000000E+00  0.00000000E+00  0.00000000E+00
  0.00000000E+00  0.00000000E+00  0.00000000E+00
  0.00000000E+00  0.00000000E+00  0.00000000E+00
  0.00000000E+00  0.00000000E+00  0.00000000E+00
  0.00000000E+00  0.00000000E+00  0.00000000E+00
  0.00000000E+00  0.00000000E+00  0.00000000E+00
  0.00000000E+00  0.00000000E+00  0.00000000E+00
  0.00000000E+00  0.00000000E+00  0.00000000E+00
  0.00000000E+00  0.00000000E+00  0.00000000E+00
  0.00000000E+00  0.00000000E+00  0.00000000E+00
  0.00000000E+00  0.00000000E+00  0.00000000E+00
  0.00000000E+00  0.00000000E+00  0.00000000E+00
  0.00000000E+00  0.00000000E+00  0.00000000E+00
  0.00000000E+00  0.00000000E+00  0.00000000E+00
