Sodilite                                
   1.00000000000000     
     9.2276431713666636    0.0117755510608433   -0.0324620316099144
     0.0117710269563193    9.2265800745329631    0.0133000428635404
    -0.0324771479795675    0.0133068520623980    9.2272151512669627
   O    Na   Al   Si   Cl   K 
    24     3     6     6     2     5
Direct
  0.1528287657693963  0.4496988863990158  0.1619483092134262
  0.8678416282399717  0.5317262137708868  0.1463711201778155
  0.8480185577474388  0.4556564690452409  0.8395772594784818
  0.1354788803013142  0.5306489351033333  0.8580581405029992
  0.1574270029739398  0.1420281321604800  0.4549438139346244
  0.1499308742796361  0.8570984806350695  0.5375801091883059
  0.8474966106272579  0.8513139043335981  0.4665937018568298
  0.8495637081457859  0.1396903305322104  0.5407080230180795
  0.4568973700291121  0.1506447478127557  0.1462925037996517
  0.5398057377236555  0.1479561525438083  0.8587851823418772
  0.4646995418378982  0.8402006368171696  0.8563315582404515
  0.5382537626426876  0.8467761441865285  0.1417203245796876
  0.9682932606352507  0.6326773648384427  0.6484984416614744
  0.0382669453132369  0.3453977826249219  0.6598750560618581
  0.9648500163780112  0.3619186786913527  0.3575469553775648
  0.0452234646312072  0.6470303007172065  0.3396857123311106
  0.6379501346412326  0.6412208921928142  0.9700913481626994
  0.3493114770802473  0.6556801233192027  0.0438367361152068
  0.3658037450982317  0.3509119927836986  0.9634532102920604
  0.6506101681694344  0.3358027257812658  0.0394492439195384
  0.6585798291238737  0.9625201571373767  0.6503838841954686
  0.6494278959101364  0.0323424932088544  0.3626568599251339
  0.3432313917371276  0.9519059757912134  0.3514794916352703
  0.3527925273354053  0.0318443663621674  0.6379598257047515
  0.1989652804855973  0.1973415102096560  0.1974786193286773
  0.8088611263724449  0.1933698639664576  0.8086474075148137
  0.2974036322108214  0.7021838882909999  0.2962011079704680
  0.2511423970143222  0.4954943147345862  0.0059894718007336
  0.7521585478350075  0.4911791889029221  0.0006063384008801
  0.0035292032129575  0.2449374053477358  0.5024447344115417
  0.0028369722646831  0.7444716176795223  0.4985649828184062
  0.4986567708328776 -0.0045825313675128  0.2513631584249743
  0.5022213229470451 -0.0052419694264715  0.7517607999574665
  0.2512160081954491 -0.0046609758759540  0.4965412383323335
  0.7516644433440202 -0.0042890834178495  0.5041573311458275
  0.5028815560013000  0.2453687767530151  0.0025980155808590
  0.4980416881545056  0.7448560080223880  0.0031692909212340
  0.0072603990616700  0.4964913687114336  0.2513852017461946
 -0.0012430779203469  0.4909690991061559  0.7519494076840750
  0.0037121029496823  0.0641547864197609  0.0035482582347487
  0.4632180808213056  0.5332509932588915  0.4631398916098710
  0.8319197545355375  0.8313220038780633  0.1689399724917210
  0.1675212220028175  0.8305362270439278  0.8313317409769411
  0.6719721509343947  0.6693292594882218  0.6732742461806028
  0.3285449132772744  0.3251210406737438  0.6737511216826408
  0.6749322090951428  0.3257053208116942  0.3293308510706220
 
  0.00000000E+00  0.00000000E+00  0.00000000E+00
  0.00000000E+00  0.00000000E+00  0.00000000E+00
  0.00000000E+00  0.00000000E+00  0.00000000E+00
  0.00000000E+00  0.00000000E+00  0.00000000E+00
  0.00000000E+00  0.00000000E+00  0.00000000E+00
  0.00000000E+00  0.00000000E+00  0.00000000E+00
  0.00000000E+00  0.00000000E+00  0.00000000E+00
  0.00000000E+00  0.00000000E+00  0.00000000E+00
  0.00000000E+00  0.00000000E+00  0.00000000E+00
  0.00000000E+00  0.00000000E+00  0.00000000E+00
  0.00000000E+00  0.00000000E+00  0.00000000E+00
  0.00000000E+00  0.00000000E+00  0.00000000E+00
  0.00000000E+00  0.00000000E+00  0.00000000E+00
  0.00000000E+00  0.00000000E+00  0.00000000E+00
  0.00000000E+00  0.00000000E+00  0.00000000E+00
  0.00000000E+00  0.00000000E+00  0.00000000E+00
  0.00000000E+00  0.00000000E+00  0.00000000E+00
  0.00000000E+00  0.00000000E+00  0.00000000E+00
  0.00000000E+00  0.00000000E+00  0.00000000E+00
  0.00000000E+00  0.00000000E+00  0.00000000E+00
  0.00000000E+00  0.00000000E+00  0.00000000E+00
  0.00000000E+00  0.00000000E+00  0.00000000E+00
  0.00000000E+00  0.00000000E+00  0.00000000E+00
  0.00000000E+00  0.00000000E+00  0.00000000E+00
  0.00000000E+00  0.00000000E+00  0.00000000E+00
  0.00000000E+00  0.00000000E+00  0.00000000E+00
  0.00000000E+00  0.00000000E+00  0.00000000E+00
  0.00000000E+00  0.00000000E+00  0.00000000E+00
  0.00000000E+00  0.00000000E+00  0.00000000E+00
  0.00000000E+00  0.00000000E+00  0.00000000E+00
  0.00000000E+00  0.00000000E+00  0.00000000E+00
  0.00000000E+00  0.00000000E+00  0.00000000E+00
  0.00000000E+00  0.00000000E+00  0.00000000E+00
  0.00000000E+00  0.00000000E+00  0.00000000E+00
  0.00000000E+00  0.00000000E+00  0.00000000E+00
  0.00000000E+00  0.00000000E+00  0.00000000E+00
  0.00000000E+00  0.00000000E+00  0.00000000E+00
  0.00000000E+00  0.00000000E+00  0.00000000E+00
  0.00000000E+00  0.00000000E+00  0.00000000E+00
  0.00000000E+00  0.00000000E+00  0.00000000E+00
  0.00000000E+00  0.00000000E+00  0.00000000E+00
  0.00000000E+00  0.00000000E+00  0.00000000E+00
  0.00000000E+00  0.00000000E+00  0.00000000E+00
  0.00000000E+00  0.00000000E+00  0.00000000E+00
  0.00000000E+00  0.00000000E+00  0.00000000E+00
  0.00000000E+00  0.00000000E+00  0.00000000E+00
