Sodilite                                
   1.00000000000000     
     9.0447183538358562    0.0000000000000000    0.0317054584000117
     0.0000000000000000    9.0536608731092620    0.0000000000000000
     0.0317145297718213    0.0000000000000000    9.0475840556529867
   O    Na   Al   Si   Cl   K 
    24     6     6     6     2     2
Direct
  0.1283387218875695  0.4552700688557100  0.1383159119306751
  0.8463478334651566  0.5615493092193695  0.1633993177758197
  0.8716612781124301  0.4552700688557100  0.8616840880693249
  0.1536521665348435  0.5615493092193695  0.8366006822241797
  0.1505896309125222  0.1426183370085501  0.4495570480784863
  0.1504516388633124  0.8610425514106196  0.5585159842179374
  0.8495483611366883  0.8610425514106196  0.4414840157820627
  0.8494103690874775  0.1426183370085501  0.5504429519215143
  0.4493252542052210  0.1536126551386953  0.1416933689219699
  0.5506747457947792  0.1536126551386953  0.8583066310780308
  0.4417616461039941  0.8523717707950880  0.8602127751531939
  0.5582383538960058  0.8523717707950880  0.1397872248468058
  0.9410536636210092  0.6419145217153481  0.6488902967758797
  0.0553233145278090  0.3608464482554913  0.6525937206700136
  0.9446766854721910  0.3608464482554913  0.3474062793299866
  0.0589463363789905  0.6419145217153481  0.3511097032241207
  0.6390115382309470  0.6530337754686422  0.9397023743206889
  0.3609884617690528  0.6530337754686422  0.0602976256793106
  0.3576442411876873  0.3522306194382519  0.9456723772695199
  0.6423557588123131  0.3522306194382519  0.0543276227304798
  0.6517022165814617  0.9438313182314414  0.6409941711343520
  0.6497708887696165  0.0587105807198967  0.3594955908613484
  0.3482977834185383  0.9438313182314414  0.3590058288656482
  0.3502291112303831  0.0587105807198967  0.6405044091386515
  0.8055652970618956  0.8100845708661862  0.1941281584499717
  0.1944347029381042  0.8100845708661862  0.8058718415500282
  0.6830557467709650  0.6836283552844052  0.6819665452312478
  0.3203819731078761  0.3227917138336238  0.6809429825529618
  0.6796180268921237  0.3227917138336238  0.3190570174470380
  0.3169442532290347  0.6836283552844052  0.3180334547687527
  0.2500838803834528  0.5070880943567436 -0.0035583393952332
  0.7499161196165470  0.5070880943567436  0.0035583393952332
  0.0000000000000000  0.2540689944845516  0.5000000000000000
  0.0000000000000000  0.7526403068970174  0.5000000000000000
  0.5001583754057721  0.0022262631777666  0.2503272725280787
  0.4998416245942279  0.0022262631777666  0.7496727274719209
  0.2501325410769449  0.0018492246483999  0.5012750136269782
  0.7498674589230555  0.0018492246483999  0.4987249863730224
  0.5000000000000000  0.2539784891332456  0.0000000000000000
  0.5000000000000000  0.7530443250420409  0.0000000000000000
 -0.0045615356108520  0.5060282835115322  0.2500101555639972
  0.0045615356108520  0.5060282835115322  0.7499898444360021
  0.0000000000000000 -0.0820030597530628  0.0000000000000000
  0.5000000000000000  0.5055054314242244  0.5000000000000000
  0.1563332871806060  0.1606542944502305  0.1568250347309937
  0.8436667128193940  0.1606542944502305  0.8431749652690058
 
  0.00000000E+00  0.00000000E+00  0.00000000E+00
  0.00000000E+00  0.00000000E+00  0.00000000E+00
  0.00000000E+00  0.00000000E+00  0.00000000E+00
  0.00000000E+00  0.00000000E+00  0.00000000E+00
  0.00000000E+00  0.00000000E+00  0.00000000E+00
  0.00000000E+00  0.00000000E+00  0.00000000E+00
  0.00000000E+00  0.00000000E+00  0.00000000E+00
  0.00000000E+00  0.00000000E+00  0.00000000E+00
  0.00000000E+00  0.00000000E+00  0.00000000E+00
  0.00000000E+00  0.00000000E+00  0.00000000E+00
  0.00000000E+00  0.00000000E+00  0.00000000E+00
  0.00000000E+00  0.00000000E+00  0.00000000E+00
  0.00000000E+00  0.00000000E+00  0.00000000E+00
  0.00000000E+00  0.00000000E+00  0.00000000E+00
  0.00000000E+00  0.00000000E+00  0.00000000E+00
  0.00000000E+00  0.00000000E+00  0.00000000E+00
  0.00000000E+00  0.00000000E+00  0.00000000E+00
  0.00000000E+00  0.00000000E+00  0.00000000E+00
  0.00000000E+00  0.00000000E+00  0.00000000E+00
  0.00000000E+00  0.00000000E+00  0.00000000E+00
  0.00000000E+00  0.00000000E+00  0.00000000E+00
  0.00000000E+00  0.00000000E+00  0.00000000E+00
  0.00000000E+00  0.00000000E+00  0.00000000E+00
  0.00000000E+00  0.00000000E+00  0.00000000E+00
  0.00000000E+00  0.00000000E+00  0.00000000E+00
  0.00000000E+00  0.00000000E+00  0.00000000E+00
  0.00000000E+00  0.00000000E+00  0.00000000E+00
  0.00000000E+00  0.00000000E+00  0.00000000E+00
  0.00000000E+00  0.00000000E+00  0.00000000E+00
  0.00000000E+00  0.00000000E+00  0.00000000E+00
  0.00000000E+00  0.00000000E+00  0.00000000E+00
  0.00000000E+00  0.00000000E+00  0.00000000E+00
  0.00000000E+00  0.00000000E+00  0.00000000E+00
  0.00000000E+00  0.00000000E+00  0.00000000E+00
  0.00000000E+00  0.00000000E+00  0.00000000E+00
  0.00000000E+00  0.00000000E+00  0.00000000E+00
  0.00000000E+00  0.00000000E+00  0.00000000E+00
  0.00000000E+00  0.00000000E+00  0.00000000E+00
  0.00000000E+00  0.00000000E+00  0.00000000E+00
  0.00000000E+00  0.00000000E+00  0.00000000E+00
  0.00000000E+00  0.00000000E+00  0.00000000E+00
  0.00000000E+00  0.00000000E+00  0.00000000E+00
  0.00000000E+00  0.00000000E+00  0.00000000E+00
  0.00000000E+00  0.00000000E+00  0.00000000E+00
  0.00000000E+00  0.00000000E+00  0.00000000E+00
  0.00000000E+00  0.00000000E+00  0.00000000E+00
