Sodilite                                
   1.00000000000000     
     9.1019798993969303    0.0116655123262242   -0.0110191081303957
     0.0116546842047018    9.0976717735544774   -0.0440455231101424
    -0.0110044604723584   -0.0440563920801703    9.0995880824496584
   O    Na   Al   Si   Cl   K 
    24     5     6     6     2     3
Direct
  0.1441303268945275  0.4453225114798904  0.1593212401164760
  0.8612962217765173  0.5452958838020254  0.1456773392190633
  0.8512864402752983  0.4425674433657558  0.8466768580108631
  0.1336555231670328  0.5499694987871635  0.8529218719574339
  0.1423257107358043  0.1368162045142227  0.4512109358812968
  0.1518919472938224  0.8512214169248649  0.5527577709645685
  0.8503073062364366  0.8641248140652472  0.4533069909134920
  0.8398582975078025  0.1445807120497992  0.5595562819528204
  0.4430546742900169  0.1537546087081699  0.1469935828292215
  0.5517301894755907  0.1463122827384997  0.8644797205542976
  0.4424335328881672  0.8434378278434831  0.8542473647658977
  0.5424443124930128  0.8509528797106576  0.1381149506216405
  0.9405722060335908  0.6527807255586793  0.6659291495349680
  0.0425167148545411  0.3711853217950254  0.6395987882188875
  0.9420482570409640  0.3433705191178753  0.3386581603489112
  0.0384800767480546  0.6283089954074590  0.3612051977305575
  0.6394394609094891  0.6510113946203405  0.9476826929708224
  0.3548860232366681  0.6481137418456805  0.0461690414110542
  0.3566275106478832  0.3474670792877864  0.9521765489518119
  0.6382391873790094  0.3472091037268326  0.0566932868627530
  0.6459597477091100  0.9450240364474187  0.6424624654323468
  0.6485870004664932  0.0518663461234091  0.3597193889699168
  0.3442406497999830  0.9522274778894838  0.3596737208725199
  0.3449233994175159  0.0479552588213166  0.6429949800489847
  0.1837346814797602  0.1855214881323846  0.1863496118880845
  0.8101829545668048  0.1892261343563927  0.8123081161713470
  0.1834469288000082  0.8150660082241996  0.8128142776986428
  0.6894665920692580  0.6940470096110724  0.6946692408707097
  0.6906668568357525  0.3050684981495212  0.3072756172082540
  0.2442909005248442  0.4964861886957550  0.0022260032400841
  0.7454029043133288  0.4968490188948191 -0.0003392845141977
 -0.0091799836835275  0.2483699292300973  0.4997397693825453
 -0.0064219979260786  0.7479010714733414  0.5068214797750806
  0.4949237504777307  0.0005099175490497  0.2517527907105722
  0.4950892008067311 -0.0024297944103316  0.7520933205018384
  0.2445283227100721 -0.0027487852402666  0.5023918837995023
  0.7453897084749710  0.0009711453383492  0.5037762212104284
  0.4964533722105535  0.2482375449798420  0.0042497105285754
  0.4945536826676461  0.7481808143639391 -0.0024118350145348
 -0.0049190751375505  0.4914058037562217  0.2517954481616885
 -0.0087905836226539  0.5025678779316165  0.7515382636866754
  0.0299506265986180  0.0354419117981965 -0.0350802108119275
  0.5760658807735528  0.4987286532353821  0.5014556155468546
  0.8413323385518592  0.8414586214402308  0.1576114583665871
  0.3359173224421979  0.3398698307205905  0.6606111586710669
  0.3369808987887886  0.6583950271385098  0.3401230137815179
 
  0.00000000E+00  0.00000000E+00  0.00000000E+00
  0.00000000E+00  0.00000000E+00  0.00000000E+00
  0.00000000E+00  0.00000000E+00  0.00000000E+00
  0.00000000E+00  0.00000000E+00  0.00000000E+00
  0.00000000E+00  0.00000000E+00  0.00000000E+00
  0.00000000E+00  0.00000000E+00  0.00000000E+00
  0.00000000E+00  0.00000000E+00  0.00000000E+00
  0.00000000E+00  0.00000000E+00  0.00000000E+00
  0.00000000E+00  0.00000000E+00  0.00000000E+00
  0.00000000E+00  0.00000000E+00  0.00000000E+00
  0.00000000E+00  0.00000000E+00  0.00000000E+00
  0.00000000E+00  0.00000000E+00  0.00000000E+00
  0.00000000E+00  0.00000000E+00  0.00000000E+00
  0.00000000E+00  0.00000000E+00  0.00000000E+00
  0.00000000E+00  0.00000000E+00  0.00000000E+00
  0.00000000E+00  0.00000000E+00  0.00000000E+00
  0.00000000E+00  0.00000000E+00  0.00000000E+00
  0.00000000E+00  0.00000000E+00  0.00000000E+00
  0.00000000E+00  0.00000000E+00  0.00000000E+00
  0.00000000E+00  0.00000000E+00  0.00000000E+00
  0.00000000E+00  0.00000000E+00  0.00000000E+00
  0.00000000E+00  0.00000000E+00  0.00000000E+00
  0.00000000E+00  0.00000000E+00  0.00000000E+00
  0.00000000E+00  0.00000000E+00  0.00000000E+00
  0.00000000E+00  0.00000000E+00  0.00000000E+00
  0.00000000E+00  0.00000000E+00  0.00000000E+00
  0.00000000E+00  0.00000000E+00  0.00000000E+00
  0.00000000E+00  0.00000000E+00  0.00000000E+00
  0.00000000E+00  0.00000000E+00  0.00000000E+00
  0.00000000E+00  0.00000000E+00  0.00000000E+00
  0.00000000E+00  0.00000000E+00  0.00000000E+00
  0.00000000E+00  0.00000000E+00  0.00000000E+00
  0.00000000E+00  0.00000000E+00  0.00000000E+00
  0.00000000E+00  0.00000000E+00  0.00000000E+00
  0.00000000E+00  0.00000000E+00  0.00000000E+00
  0.00000000E+00  0.00000000E+00  0.00000000E+00
  0.00000000E+00  0.00000000E+00  0.00000000E+00
  0.00000000E+00  0.00000000E+00  0.00000000E+00
  0.00000000E+00  0.00000000E+00  0.00000000E+00
  0.00000000E+00  0.00000000E+00  0.00000000E+00
  0.00000000E+00  0.00000000E+00  0.00000000E+00
  0.00000000E+00  0.00000000E+00  0.00000000E+00
  0.00000000E+00  0.00000000E+00  0.00000000E+00
  0.00000000E+00  0.00000000E+00  0.00000000E+00
  0.00000000E+00  0.00000000E+00  0.00000000E+00
  0.00000000E+00  0.00000000E+00  0.00000000E+00
