Sodilite                                
   1.00000000000000     
     9.1404148596910488    0.0000000000000000    0.0000000028658197
     0.0000000000000000    9.1710393456523445    0.0000000000000000
    -0.0000000028658197    0.0000000000000000    9.1404148596910488
   O    Na   Al   Si   Cl   K 
    24     4     6     6     2     4
Direct
  0.1550008272217236  0.4479085872136347  0.1654697669434754
  0.8707225527579410  0.5378782079728387  0.1382328899087283
  0.8449991727782766  0.4479085872136347  0.8345302330565247
  0.1292774472420586  0.5378782079728387  0.8617671100912718
  0.1504560332901690  0.1424606356597640  0.4473256838279628
  0.1535928285623454  0.8582522629528918  0.5389060527554567
  0.8464071714376545  0.8582522629528918  0.4610939472445429
  0.8495439667098306  0.1424606356597640  0.5526743161720374
  0.4463915702896092  0.1519259234822841  0.1401803336277328
  0.5536084297103908  0.1519259234822841  0.8598196663722674
  0.4616227183498616  0.8486021152867098  0.8556227645750939
  0.5383772816501387  0.8486021152867098  0.1443772354249058
  0.9610939472445433  0.6417477370471082  0.6535928285623455
  0.0526743161720373  0.3575393643402356  0.6504560332901694
  0.9473256838279626  0.3575393643402356  0.3495439667098312
  0.0389060527554569  0.6417477370471082  0.3464071714376544
  0.6443772354249061  0.6513978847132902  0.9616227183498613
  0.3556227645750938  0.6513978847132902  0.0383772816501383
  0.3598196663722673  0.3480740765177160  0.9463915702896092
  0.6401803336277326  0.3480740765177160  0.0536084297103906
  0.6382328899087282  0.9621217920271613  0.6292774472420590
  0.6654697669434753  0.0520914127863653  0.3449991727782765
  0.3617671100912718  0.9621217920271613  0.3707225527579415
  0.3345302330565244  0.0520914127863653  0.6550008272217234
  0.1962683080338366  0.1962473329959094  0.1970589537750026
  0.8037316919661635  0.1962473329959094  0.8029410462249974
  0.3029410462249973  0.3037526670040904  0.6962683080338365
  0.6970589537750026  0.3037526670040904  0.3037316919661637
  0.2498897019535268  0.4951491311030931  0.0033079700726352
  0.7501102980464733  0.4951491311030931 -0.0033079700726352
 -0.0000000000000000  0.2500000000000000  0.5000000000000000
 -0.0000000000000000  0.7500000000000000  0.5000000000000000
  0.5033079700726352  0.0048508688969069  0.2501102980464731
  0.4966920299273647  0.0048508688969069  0.7498897019535267
  0.2501530892770868  0.0044071509352181  0.5028963093026815
  0.7498469107229129  0.0044071509352181  0.4971036906973186
  0.5000000000000000  0.2500000000000000 -0.0000000000000000
  0.5000000000000000  0.7500000000000000 -0.0000000000000000
  0.0028963093026815  0.4955928490647820  0.2498469107229131
 -0.0028963093026815  0.4955928490647820  0.7501530892770871
 -0.0000000000000000  0.0768908081084875 -0.0000000000000000
  0.5000000000000000  0.4231091918915125  0.5000000000000000
  0.8374187285648136  0.8359481123525960  0.1622298831828492
  0.1625812714351866  0.8359481123525960  0.8377701168171504
  0.6622298831828496  0.6640518876474040  0.6625812714351864
  0.3377701168171506  0.6640518876474040  0.3374187285648134
 
  0.00000000E+00  0.00000000E+00  0.00000000E+00
  0.00000000E+00  0.00000000E+00  0.00000000E+00
  0.00000000E+00  0.00000000E+00  0.00000000E+00
  0.00000000E+00  0.00000000E+00  0.00000000E+00
  0.00000000E+00  0.00000000E+00  0.00000000E+00
  0.00000000E+00  0.00000000E+00  0.00000000E+00
  0.00000000E+00  0.00000000E+00  0.00000000E+00
  0.00000000E+00  0.00000000E+00  0.00000000E+00
  0.00000000E+00  0.00000000E+00  0.00000000E+00
  0.00000000E+00  0.00000000E+00  0.00000000E+00
  0.00000000E+00  0.00000000E+00  0.00000000E+00
  0.00000000E+00  0.00000000E+00  0.00000000E+00
  0.00000000E+00  0.00000000E+00  0.00000000E+00
  0.00000000E+00  0.00000000E+00  0.00000000E+00
  0.00000000E+00  0.00000000E+00  0.00000000E+00
  0.00000000E+00  0.00000000E+00  0.00000000E+00
  0.00000000E+00  0.00000000E+00  0.00000000E+00
  0.00000000E+00  0.00000000E+00  0.00000000E+00
  0.00000000E+00  0.00000000E+00  0.00000000E+00
  0.00000000E+00  0.00000000E+00  0.00000000E+00
  0.00000000E+00  0.00000000E+00  0.00000000E+00
  0.00000000E+00  0.00000000E+00  0.00000000E+00
  0.00000000E+00  0.00000000E+00  0.00000000E+00
  0.00000000E+00  0.00000000E+00  0.00000000E+00
  0.00000000E+00  0.00000000E+00  0.00000000E+00
  0.00000000E+00  0.00000000E+00  0.00000000E+00
  0.00000000E+00  0.00000000E+00  0.00000000E+00
  0.00000000E+00  0.00000000E+00  0.00000000E+00
  0.00000000E+00  0.00000000E+00  0.00000000E+00
  0.00000000E+00  0.00000000E+00  0.00000000E+00
  0.00000000E+00  0.00000000E+00  0.00000000E+00
  0.00000000E+00  0.00000000E+00  0.00000000E+00
  0.00000000E+00  0.00000000E+00  0.00000000E+00
  0.00000000E+00  0.00000000E+00  0.00000000E+00
  0.00000000E+00  0.00000000E+00  0.00000000E+00
  0.00000000E+00  0.00000000E+00  0.00000000E+00
  0.00000000E+00  0.00000000E+00  0.00000000E+00
  0.00000000E+00  0.00000000E+00  0.00000000E+00
  0.00000000E+00  0.00000000E+00  0.00000000E+00
  0.00000000E+00  0.00000000E+00  0.00000000E+00
  0.00000000E+00  0.00000000E+00  0.00000000E+00
  0.00000000E+00  0.00000000E+00  0.00000000E+00
  0.00000000E+00  0.00000000E+00  0.00000000E+00
  0.00000000E+00  0.00000000E+00  0.00000000E+00
  0.00000000E+00  0.00000000E+00  0.00000000E+00
  0.00000000E+00  0.00000000E+00  0.00000000E+00
