Sodilite                                
   1.00000000000000     
     9.2119873720795606    0.0056510532230019    0.0130433474357165
     0.0056615749017245    9.2316512245427749    0.0061580548604050
     0.0130406283448839    0.0061389074418973    9.2106783313854219
   O    Na   Al   Si   Cl   K 
    24     3     6     6     2     5
Direct
  0.1529370293265735  0.4636918419063978  0.1635575078609720
  0.8663595302330577  0.5346759054447147  0.1447262722915524
  0.8493337710178412  0.4542087741350462  0.8389037649514559
  0.1350656277858633  0.5343785444150522  0.8590869044433793
  0.1462923450086024  0.1382434569559314  0.4646183622190078
  0.1617096564650103  0.8522795557507984  0.5360375331804800
  0.8537467050855807  0.8652563326922803  0.4686265813926409
  0.8430811715871740  0.1512326335627998  0.5486165083051880
  0.4635768982271338  0.1467965716966309  0.1357540196309895
  0.5499406957338377  0.1610011913751530  0.8521580654764755
  0.4694727092615703  0.8551601358023245  0.8626725259475618
  0.5348359369266333  0.8431306895646857  0.1521251391857772
  0.9656179715714132  0.6446319172761540  0.6571924241413134
  0.0489583972692731  0.3601264015854960  0.6514160525507217
  0.9561269145112274  0.3549085411253701  0.3474458814234755
  0.0317756134928215  0.6428407603143373  0.3506816602212267
  0.6474468644753316  0.6546124295558292  0.9657687240308426
  0.3588474255475349  0.6524506629244688  0.0326656310278922
  0.3572481639568136  0.3450029630934331  0.9559468735923533
  0.6411317136214608  0.3513424093490897  0.0482445913564101
  0.6401552788237244  0.9646613512861935  0.6303182355615001
  0.6674192174444344  0.0469714054083078  0.3466814410801830
  0.3598672131432905  0.9713250074869443  0.3692305003446098
  0.3378017892865033  0.0459097053528141  0.6572066468354067
  0.7934593933172411  0.2077126277285582  0.7924949431131196
  0.3027920371784537  0.3008537798912757  0.6971060694590203
  0.6980053432338277  0.3019244546378081  0.3025180686685648
  0.2522907212186873  0.4979183160444600  0.0033565774188575
  0.7516302711978045  0.4983613174189184 -0.0012488379184500
 -0.0008928524039388  0.2517688124187709  0.5032390187249052
  0.0027596429529568  0.7519989088394122  0.5039693338094215
  0.5065221544590458  0.0032886474231464  0.2522823686867719
  0.5004431854390297  0.0068935438410505  0.7514434247083789
  0.2520406401749021  0.0027620077123175  0.5067216149989248
  0.7514700028826283  0.0072180261733239  0.4995140056244873
  0.5033384059135823  0.2513030965913692 -0.0015246789390471
  0.5031920461649727  0.7517049155207761  0.0030862496887710
  0.0020956856799198  0.4986351612845061  0.2521126965267528
 -0.0003285147293653  0.4981345472106253  0.7518352191736556
 -0.0381490604308181  0.0419446412891753 -0.0383709566420207
  0.5022484979987847  0.4301994175006899  0.5020009920591672
  0.1733469823448579  0.1712264446919652  0.1737272894859069
  0.8307438532505077  0.8282298269509619  0.1716060883500499
  0.1720893320935603  0.8278200117586705  0.8316296678502527
  0.6676759285230743  0.6690413655416840  0.6676823127100737
  0.3344776637375773  0.6662209414702817  0.3351366853910173
 
  0.00000000E+00  0.00000000E+00  0.00000000E+00
  0.00000000E+00  0.00000000E+00  0.00000000E+00
  0.00000000E+00  0.00000000E+00  0.00000000E+00
  0.00000000E+00  0.00000000E+00  0.00000000E+00
  0.00000000E+00  0.00000000E+00  0.00000000E+00
  0.00000000E+00  0.00000000E+00  0.00000000E+00
  0.00000000E+00  0.00000000E+00  0.00000000E+00
  0.00000000E+00  0.00000000E+00  0.00000000E+00
  0.00000000E+00  0.00000000E+00  0.00000000E+00
  0.00000000E+00  0.00000000E+00  0.00000000E+00
  0.00000000E+00  0.00000000E+00  0.00000000E+00
  0.00000000E+00  0.00000000E+00  0.00000000E+00
  0.00000000E+00  0.00000000E+00  0.00000000E+00
  0.00000000E+00  0.00000000E+00  0.00000000E+00
  0.00000000E+00  0.00000000E+00  0.00000000E+00
  0.00000000E+00  0.00000000E+00  0.00000000E+00
  0.00000000E+00  0.00000000E+00  0.00000000E+00
  0.00000000E+00  0.00000000E+00  0.00000000E+00
  0.00000000E+00  0.00000000E+00  0.00000000E+00
  0.00000000E+00  0.00000000E+00  0.00000000E+00
  0.00000000E+00  0.00000000E+00  0.00000000E+00
  0.00000000E+00  0.00000000E+00  0.00000000E+00
  0.00000000E+00  0.00000000E+00  0.00000000E+00
  0.00000000E+00  0.00000000E+00  0.00000000E+00
  0.00000000E+00  0.00000000E+00  0.00000000E+00
  0.00000000E+00  0.00000000E+00  0.00000000E+00
  0.00000000E+00  0.00000000E+00  0.00000000E+00
  0.00000000E+00  0.00000000E+00  0.00000000E+00
  0.00000000E+00  0.00000000E+00  0.00000000E+00
  0.00000000E+00  0.00000000E+00  0.00000000E+00
  0.00000000E+00  0.00000000E+00  0.00000000E+00
  0.00000000E+00  0.00000000E+00  0.00000000E+00
  0.00000000E+00  0.00000000E+00  0.00000000E+00
  0.00000000E+00  0.00000000E+00  0.00000000E+00
  0.00000000E+00  0.00000000E+00  0.00000000E+00
  0.00000000E+00  0.00000000E+00  0.00000000E+00
  0.00000000E+00  0.00000000E+00  0.00000000E+00
  0.00000000E+00  0.00000000E+00  0.00000000E+00
  0.00000000E+00  0.00000000E+00  0.00000000E+00
  0.00000000E+00  0.00000000E+00  0.00000000E+00
  0.00000000E+00  0.00000000E+00  0.00000000E+00
  0.00000000E+00  0.00000000E+00  0.00000000E+00
  0.00000000E+00  0.00000000E+00  0.00000000E+00
  0.00000000E+00  0.00000000E+00  0.00000000E+00
  0.00000000E+00  0.00000000E+00  0.00000000E+00
  0.00000000E+00  0.00000000E+00  0.00000000E+00
