Sodilite                                
   1.00000000000000     
     9.0475816315942073    0.0000000000000000    0.0317102439136708
     0.0000000000000000    9.0536610131208555    0.0000000000000000
     0.0317011518657546    0.0000000000000000    9.0447228246386402
   O    Na   Al   Si   Cl   K 
    24     6     6     6     2     2
Direct
  0.1409926428051891  0.4438327702736484  0.1517001669210712
  0.8594937444018734  0.5587116638560083  0.1497728019634790
  0.8590073571948107  0.4438327702736484  0.8482998330789285
  0.1405062555981272  0.5587116638560083  0.8502271980365212
  0.1488911561966682  0.1419147561852675  0.4410545180997471
  0.1525932212695388  0.8608456853583419  0.5553229219168425
  0.8474067787304612  0.8608456853583419  0.4446770780831573
  0.8511088438033320  0.1419147561852675  0.5589454819002531
  0.4397038721678798  0.1530335015023902  0.1390116719943924
  0.5602961278321199  0.1530335015023902  0.8609883280056075
  0.4456722196386206  0.8522296868968201  0.8576438814493859
  0.5543277803613790  0.8522296868968201  0.1423561185506141
  0.9495554444668785  0.6426188181901928  0.6505897152829844
  0.0585141989727516  0.3610414076537354  0.6504531486246110
  0.9414858010272482  0.3610414076537354  0.3495468513753885
  0.0504445555331214  0.6426188181901928  0.3494102847170159
  0.6416935090757051  0.6536132577703836  0.9493253834685780
  0.3583064909242951  0.6536132577703836  0.0506746165314221
  0.3602117052257306  0.3523715332904825  0.9417613723011408
  0.6397882947742697  0.3523715332904825  0.0582386276988591
  0.6383176518447427  0.9552697065209322  0.6283398558657874
  0.6633989361106788  0.0615481854282101  0.3463473881677437
  0.3616823481552568  0.9552697065209322  0.3716601441342131
  0.3366010638893205  0.0615481854282101  0.6536526118322560
  0.1819651799854799  0.1836284822147652  0.1830557626089076
  0.8190553436814861  0.8227926500929539  0.1796184000577736
  0.8180348200145201  0.1836284822147652  0.8169442373910922
  0.1809446563185144  0.8227926500929539  0.8203815999422263
  0.3058694478448741  0.3100834269243689  0.6944373245680229
  0.6941305521551259  0.3100834269243689  0.3055626754319770
  0.2496727914217088  0.5022275280965078 -0.0001590688071064
  0.7503272085782912  0.5022275280965078  0.0001590688071064
  0.0000000000000000  0.2526401867210516  0.5000000000000000
  0.0000000000000000  0.7540682112703457  0.5000000000000000
  0.5035577958107598  0.0070872759742567  0.2499160578094137
  0.4964422041892404  0.0070872759742567  0.7500839421905861
  0.2499897561498806  0.0060276587827600  0.5045619731892824
  0.7500102438501196  0.0060276587827600  0.4954380268107180
  0.5000000000000000  0.2530446618792761 -0.0000000000000000
  0.5000000000000000  0.7539785189757204 -0.0000000000000000
 -0.0012753277334347  0.5018501501595192  0.2498674782264846
  0.0012753277334347  0.5018501501595192  0.7501325217735151
  0.0000000000000000  0.0055095737977570 -0.0000000000000000
  0.5000000000000000  0.4179954598549767  0.5000000000000000
  0.6568242419826530  0.6606535485788898  0.6563334064950194
  0.3431757580173472  0.6606535485788898  0.3436665935049806
 
  0.00000000E+00  0.00000000E+00  0.00000000E+00
  0.00000000E+00  0.00000000E+00  0.00000000E+00
  0.00000000E+00  0.00000000E+00  0.00000000E+00
  0.00000000E+00  0.00000000E+00  0.00000000E+00
  0.00000000E+00  0.00000000E+00  0.00000000E+00
  0.00000000E+00  0.00000000E+00  0.00000000E+00
  0.00000000E+00  0.00000000E+00  0.00000000E+00
  0.00000000E+00  0.00000000E+00  0.00000000E+00
  0.00000000E+00  0.00000000E+00  0.00000000E+00
  0.00000000E+00  0.00000000E+00  0.00000000E+00
  0.00000000E+00  0.00000000E+00  0.00000000E+00
  0.00000000E+00  0.00000000E+00  0.00000000E+00
  0.00000000E+00  0.00000000E+00  0.00000000E+00
  0.00000000E+00  0.00000000E+00  0.00000000E+00
  0.00000000E+00  0.00000000E+00  0.00000000E+00
  0.00000000E+00  0.00000000E+00  0.00000000E+00
  0.00000000E+00  0.00000000E+00  0.00000000E+00
  0.00000000E+00  0.00000000E+00  0.00000000E+00
  0.00000000E+00  0.00000000E+00  0.00000000E+00
  0.00000000E+00  0.00000000E+00  0.00000000E+00
  0.00000000E+00  0.00000000E+00  0.00000000E+00
  0.00000000E+00  0.00000000E+00  0.00000000E+00
  0.00000000E+00  0.00000000E+00  0.00000000E+00
  0.00000000E+00  0.00000000E+00  0.00000000E+00
  0.00000000E+00  0.00000000E+00  0.00000000E+00
  0.00000000E+00  0.00000000E+00  0.00000000E+00
  0.00000000E+00  0.00000000E+00  0.00000000E+00
  0.00000000E+00  0.00000000E+00  0.00000000E+00
  0.00000000E+00  0.00000000E+00  0.00000000E+00
  0.00000000E+00  0.00000000E+00  0.00000000E+00
  0.00000000E+00  0.00000000E+00  0.00000000E+00
  0.00000000E+00  0.00000000E+00  0.00000000E+00
  0.00000000E+00  0.00000000E+00  0.00000000E+00
  0.00000000E+00  0.00000000E+00  0.00000000E+00
  0.00000000E+00  0.00000000E+00  0.00000000E+00
  0.00000000E+00  0.00000000E+00  0.00000000E+00
  0.00000000E+00  0.00000000E+00  0.00000000E+00
  0.00000000E+00  0.00000000E+00  0.00000000E+00
  0.00000000E+00  0.00000000E+00  0.00000000E+00
  0.00000000E+00  0.00000000E+00  0.00000000E+00
  0.00000000E+00  0.00000000E+00  0.00000000E+00
  0.00000000E+00  0.00000000E+00  0.00000000E+00
  0.00000000E+00  0.00000000E+00  0.00000000E+00
  0.00000000E+00  0.00000000E+00  0.00000000E+00
  0.00000000E+00  0.00000000E+00  0.00000000E+00
  0.00000000E+00  0.00000000E+00  0.00000000E+00
